Ag1 As1 Se2
1.0
   5.2051305559443106    0.0000000000000000    1.4798072151980561
   2.3922123030932245    4.6228459201399446    1.4798072151980561
   0.0000000000000000    0.0000000000000000    9.8942663657309939
Ag As Se
1 1 2
direct
   0.5000000000000000    0.5000000000000000    0.5000000000000000 Ag
   0.0000000000000000    0.0000000000000000    0.0000000000000000 As
   0.2600000000000000    0.2600000000000000    0.2200000000000000 Se
   0.7400000000000000    0.7400000000000000    0.7800000000000000 Se
