Rb2 Zr1 Cl6
1.0
   7.8317346795453879    0.0000000000000000    4.5216541254572586
   2.6105782265151301    7.3838302671471956    4.5216541254572586
   0.0000000000000000    0.0000000000000000    9.0433082509145155
Rb Zr Cl
2 1 6
direct
   0.7500000000000000    0.7500000000000000    0.7500000000000000 Rb+
   0.2500000000000000    0.2500000000000000    0.2500000000000000 Rb+
   0.0000000000000000    0.0000000000000000    0.0000000000000000 Zr4+
   0.7600000000000000    0.7600000000000000    0.2400000000000000 Cl-
   0.2400000000000000    0.7600000000000000    0.7600000000000000 Cl-
   0.7600000000000000    0.2400000000000000    0.7600000000000000 Cl-
   0.7600000000000000    0.2400000000000000    0.2400000000000000 Cl-
   0.2400000000000000    0.7600000000000000    0.2400000000000000 Cl-
   0.2400000000000000    0.2400000000000000    0.7600000000000000 Cl-
