K2 Sn1 Cl6
1.0
   6.1133140285083298    0.0000000000000000    3.5295235000000007
   2.0377713428361104    5.7636877401081215    3.5295235000000007
   0.0000000000000000    0.0000000000000000    7.0590469999999996
K Sn Cl
2 1 6
direct
   0.7019681181003328    0.9213323923437937    0.7761328167408348 K+
   0.1720471245765717    0.1388841214184589    0.4637572745172105 K+
   0.0639062067156127    0.9719070922655979    0.9830440627788579 Sn4+
   0.8452939356983907    0.6475999380929873    0.3164667587285611 Cl-
   0.2710649033912013    0.6876360520651179    0.8331011607875041 Cl-
   0.9091788216134056    0.2176644460365320    0.6132666041168244 Cl-
   0.7990439199352769    0.2894625086758118    0.2224437524254926 Cl-
   0.2421745668465881    0.7986058216835520    0.3490240585123323 Cl-
   0.1187528378784222    0.6323951320155099    0.5257149087396765 Cl-
