Rb2 Pb1 Cl6
1.0
   6.2431369782840447    0.0000000000000000    3.6044768150000008
   2.0810456594280153    5.8860859909615195    3.6044768150000008
   0.0000000000000000    0.0000000000000000    7.2089536299999999
Rb Pb Cl
2 1 6
direct
   0.8524456807705663    0.7127581420231145    0.6631462822212919 Rb+
   0.2279261640060353    0.3063636807731422    0.0770478338101576 Rb+
   0.9514743545612462    0.0219447896976795    0.0491991602091311 Pb4+
   0.7409887365079786    0.8123814465742687    0.2723958032320890 Cl-
   0.3043846730028666    0.8035309048493213    0.7622453076810267 Cl-
   0.6746382515269803    0.2861594404230506    0.7918634755059079 Cl-
   0.7804783095831339    0.2740487879685272    0.2225275101613469 Cl-
   0.1670936617201900    0.7775691247419858    0.3222405037666086 Cl-
   0.2962767557826274    0.2829740381072218    0.6801722938268020 Cl-
