Ba2 Y2 Ag2 Te6
1.0
   4.4772999999999996    0.0000000000000000    0.0000000000000003
  -1.7514036851774535    5.8112820551794906    0.0000000000000004
   0.0000000000000000    0.0000000000000000   11.3360000000000003
Ba Y Ag Te
2 2 2 6
direct
   0.7548300000000000    0.5096600000000000    0.2500000000000000 Ba
   0.2451700000000000    0.4903400000000000    0.7500000000000000 Ba
   0.0000000000000000    0.0000000000000000    0.0000000000000000 Y
   0.0000000000000000    0.0000000000000000    0.5000000000000000 Y
   0.4683300000000000    0.9366600000000000    0.2500000000000000 Ag
   0.5316700000000000    0.0633400000000000    0.7500000000000000 Ag
   0.3605300000000000    0.7210600000000000    0.0503300000000000 Te
   0.6394700000000000    0.2789400000000000    0.5503300000000000 Te
   0.6394700000000000    0.2789400000000000    0.9496700000000000 Te
   0.3605300000000000    0.7210600000000000    0.4496700000000000 Te
   0.0795400000000000    0.1590800000000000    0.2500000000000000 Te
   0.9204599999999999    0.8409200000000000    0.7500000000000000 Te
