Ag1 As1 Se2
1.0
   3.7657720392516620    0.0000000000000000    1.0706007418222629
   1.7307012967531548    3.3445047575129219    1.0706007418222629
   0.0000000000000000    0.0000000000000000    7.1582357500000002
Ag As Se
1 1 2
direct
   0.7400000000000000    0.7400000000000000    0.7800000000000000 Ag
   0.0000000000000000    0.0000000000000000    0.0000000000000000 As
   0.5000000000000000    0.5000000000000000    0.5000000000000000 Se
   0.2600000000000000    0.2600000000000000    0.2200000000000000 Se
