Cs2 Ag1 F4
1.0
   4.3790524371172035    0.0000000000000000   -1.3451619802008541
  -0.4132082862586313    4.3595136379175745   -1.3451619802008541
   0.0000000000000000    0.0000000000000000    7.8003843799999997
Cs Ag F
2 1 4
direct
   0.3600000000000000    0.3600000000000000    0.7200000000000000 Cs
   0.0000000000000000    0.0000000000000000    0.0000000000000000 Cs
   0.6400000000000000    0.6400000000000000    0.2800000000000000 Ag
   0.1500000000000000    0.1500000000000000    0.3000000000000000 F
   0.8500000000000000    0.8500000000000000    0.7000000000000000 F
   0.0000000000000000    0.5000000000000000    0.0000000000000000 F
   0.5000000000000000    0.0000000000000000    0.0000000000000000 F
