Rb2 Sn1 I6
1.0
   7.1035202525435901    0.0000000000000000    4.1012193300000011
   2.3678400841811968    6.6972631211593985    4.1012193300000011
   0.0000000000000000    0.0000000000000000    8.2024386600000003
Rb Sn I
2 1 6
direct
   0.7652067681303600    0.6544588215656194    0.7785405647519532 Rb+
   0.3211478243141864    0.2640679425327280    0.2783136101213390 Rb+
   0.9456866109465024    0.9844804151090498    0.9989201549935566 Sn4+
   0.6579511461478024    0.7885663434961339    0.1040952465586948 I-
   0.2419819211831419    0.7270708780952760    0.7456220940018776 I-
   0.7310030228420015    0.2770957178756155    0.7557921910322783 I-
   0.7983712931954319    0.4131524007903431    0.0578319480254571 I-
   0.1617844387272990    0.8155017660322985    0.1810771123703946 I-
   0.1707884884048883    0.2076046511926722    0.8248392278728851 I-
