Cs2 Sn1 I6
1.0
   8.6603651683026808    0.0000000000000000    5.0000641612000125
   2.8867883894342272    8.1650705840781352    5.0000641612000125
   0.0000000000000000    0.0000000000000000   10.0001283224000233
Cs Sn I
2 1 6
direct
   0.7500000000000000    0.7500000000000000    0.7500000000000000 Cs+
   0.2500000000000000    0.2500000000000000    0.2500000000000000 Cs+
   0.0000000000000000    0.0000000000000000    0.0000000000000000 Sn4+
   0.7550000000000000    0.7550000000000000    0.2450000000000000 I-
   0.2450000000000000    0.7550000000000000    0.7550000000000000 I-
   0.7550000000000000    0.2450000000000000    0.7550000000000000 I-
   0.7550000000000000    0.2450000000000000    0.2450000000000000 I-
   0.2450000000000000    0.7550000000000000    0.2450000000000000 I-
   0.2450000000000000    0.2450000000000000    0.7550000000000000 I-
