Tl2 Sn1 Cl6
1.0
   6.1053531852468357    0.0000000000000000    3.5249273050000007
   2.0351177284156123    5.7561821851025670    3.5249273050000007
   0.0000000000000000    0.0000000000000000    7.0498546099999997
Tl Sn Cl
2 1 6
direct
   0.7500000000000000    0.7500000000000000    0.7500000000000000 Tl+
   0.0000000000000000    0.0000000000000000    0.0000000000000000 Tl+
   0.2500000000000000    0.2500000000000000    0.2500000000000000 Sn4+
   0.7600000000000000    0.7600000000000000    0.2400000000000000 Cl-
   0.2400000000000000    0.7600000000000000    0.7600000000000000 Cl-
   0.7600000000000000    0.2400000000000000    0.7600000000000000 Cl-
   0.7600000000000000    0.2400000000000000    0.2400000000000000 Cl-
   0.2400000000000000    0.7600000000000000    0.2400000000000000 Cl-
   0.2400000000000000    0.2400000000000000    0.7600000000000000 Cl-
