Rb2 Zr1 Cl6
1.0
   6.2327266514499780    0.0000000000000000    3.5984664100000008
   2.0775755504833264    5.8762710406965368    3.5984664100000008
   0.0000000000000000    0.0000000000000000    7.1969328199999998
Rb Zr Cl
2 1 6
direct
   0.8237804840894862    0.7069692681742046    0.7563222818814199 Rb+
   0.2114562834608266    0.2943795385360168    0.2814848380510203 Rb+
   0.0432412435963074    0.9409109656624464    0.9819643908870115 Zr4+
   0.8204685599141732    0.6392297352821685    0.1919715147767902 Cl-
   0.2145694849865644    0.8690400519200270    0.6803128780609458 Cl-
   0.8756278886055904    0.1662830747354558    0.7099574508260021 Cl-
   0.7943222987926986    0.1996847404571381    0.2469859550468485 Cl-
   0.3834337692313978    0.6679636346726251    0.3254488558209229 Cl-
   0.2734535870758012    0.3152135694902216    0.7053069567557825 Cl-
