Ba2 Ce1 Pt1 O6
1.0
   5.1493173358572673    0.0000000000000000    2.9729597500000002
   1.7164391119524227    4.8548229422214941    2.9729597500000002
   0.0000000000000000    0.0000000000000000    5.9459194999999996
Ba Ce Pt O
2 1 1 6
direct
   0.5839743830264097    0.7735436239967758    0.9097505303141082 Ba2+
   0.2986888521985500    0.2902670093802887    0.3312232706019180 Ba2+
   0.4898305378641738    0.4742071702193687    0.4751236202606928 Ce4+
   0.0374036026535847    0.9694763295484858    0.8917929741639317 Pt4+
   0.6741046517695715    0.8050447520946608    0.1878044514819208 O2-
   0.2247469574355728    0.8136942596846793    0.7245270358035970 O2-
   0.8594636257691950    0.9890551613385146    0.7081492893658234 O2-
   0.5772599183049976    0.2577244384450619    0.5020607927959351 O2-
   0.2414287655443169    0.7009476378480569    0.1533183201541931 O2-
   0.1764943788685291    0.2087417811514812    0.4896975364726395 O2-
