Rb2 Sn1 I6
1.0
   9.4097098022764705    0.0000000000000000    5.4326984873405824
   3.1365699340921571    8.8715594802496263    5.4326984873405824
   0.0000000000000000    0.0000000000000000   10.8653969746811612
Rb Sn I
2 1 6
direct
   0.7500000000000000    0.7500000000000000    0.7500000000000000 Rb+
   0.2500000000000000    0.2500000000000000    0.2500000000000000 Rb+
   0.0000000000000000    0.0000000000000000    0.0000000000000000 Sn4+
   0.7550000000000000    0.7550000000000000    0.2450000000000000 I-
   0.2450000000000000    0.7550000000000000    0.7550000000000000 I-
   0.7550000000000000    0.2450000000000000    0.7550000000000000 I-
   0.7550000000000000    0.2450000000000000    0.2450000000000000 I-
   0.2450000000000000    0.7550000000000000    0.2450000000000000 I-
   0.2450000000000000    0.2450000000000000    0.7550000000000000 I-
