Cr4 Ag2 Te8
1.0
   8.9679196250726019    0.0000000000000000    5.1776308096065957
   2.9893065416908673    8.4550357066996771    5.1776308096065957
   0.0000000000000000    0.0000000000000000   10.3552616192131897
Cr Ag Te
4 2 8
direct
   0.5000000000000000    0.5000000000000000    0.5000000000000000 Cr
   0.5000000000000000    0.5000000000000000    0.0000000000000000 Cr
   0.0000000000000000    0.5000000000000000    0.5000000000000000 Cr
   0.5000000000000000    0.0000000000000000    0.5000000000000000 Cr
   0.8750000000000000    0.8750000000000000    0.8750000000000000 Ag
   0.1250000000000000    0.1250000000000000    0.1250000000000000 Ag
   0.7380000000000000    0.7380000000000000    0.7380000000000000 Te
   0.2620000000000000    0.2620000000000000    0.7140000000000000 Te
   0.2860000000000000    0.7380000000000000    0.7380000000000000 Te
   0.2620000000000000    0.7140000000000000    0.2620000000000000 Te
   0.7380000000000000    0.7380000000000000    0.2860000000000000 Te
   0.7140000000000000    0.2620000000000000    0.2620000000000000 Te
   0.7380000000000000    0.2860000000000000    0.7380000000000000 Te
   0.2620000000000000    0.2620000000000000    0.2620000000000000 Te
