Rb2 Pb1 Cl6
1.0
   6.2431369782840447    0.0000000000000000    3.6044768150000008
   2.0810456594280153    5.8860859909615195    3.6044768150000008
   0.0000000000000000    0.0000000000000000    7.2089536299999999
Rb Pb Cl
2 1 6
direct
   0.2500000000000000    0.2500000000000000    0.2500000000000000 Rb+
   0.0000000000000000    0.0000000000000000    0.0000000000000000 Rb+
   0.7500000000000000    0.7500000000000000    0.7500000000000000 Pb4+
   0.7550000000000000    0.7550000000000000    0.2450000000000000 Cl-
   0.2450000000000000    0.7550000000000000    0.7550000000000000 Cl-
   0.7550000000000000    0.2450000000000000    0.7550000000000000 Cl-
   0.7550000000000000    0.2450000000000000    0.2450000000000000 Cl-
   0.2450000000000000    0.7550000000000000    0.2450000000000000 Cl-
   0.2450000000000000    0.2450000000000000    0.7550000000000000 Cl-
