Al2 Ag2 O4
1.0
   3.7214487916755616    0.0000000000000000    0.0000000000000002
  -1.8607243958377797    3.2228691924739405    0.0000000000000002
   0.0000000000000000    0.0000000000000000   15.7017896358714388
Al Ag O
2 2 4
direct
   0.0000000000000000    0.0000000000000000    0.0000000000000000 Al
   0.0000000000000000    0.0000000000000000    0.5000000000000000 Al
   0.3333333333333333    0.6666666666666666    0.2500000000000000 Ag
   0.6666666666666666    0.3333333333333333    0.7500000000000000 Ag
   0.3333333333333333    0.6666666666666666    0.0781000000000000 O
   0.6666666666666666    0.3333333333333333    0.5780999999999999 O
   0.3333333333333333    0.6666666666666666    0.4219000000000000 O
   0.6666666666666666    0.3333333333333333    0.9219000000000001 O
