Cs2 Pb1 Cl6
1.0
   5.0002260663389864    0.0000000000000000    2.8868818654097979
   2.1261570959162275    6.0136804015610439    3.6826121150000009
   0.0000000000000000    0.0000000000000000    7.3652242299999999
Cs Pb Cl
2 1 6
direct
   0.7500000000000000    0.7500000000000000    0.7500000000000000 Cs+
   0.2500000000000000    0.2500000000000000    0.2500000000000000 Cs+
   0.0000000000000000    0.0000000000000000    0.0000000000000000 Pb4+
   0.7600000000000000    0.7600000000000000    0.2400000000000000 Cl-
   0.2400000000000000    0.7600000000000000    0.7600000000000000 Cl-
   0.7600000000000000    0.2400000000000000    0.7600000000000000 Cl-
   0.7600000000000000    0.2400000000000000    0.2400000000000000 Cl-
   0.2400000000000000    0.7600000000000000    0.2400000000000000 Cl-
   0.2400000000000000    0.2400000000000000    0.7600000000000000 Cl-
