Cr1 Ag1 Se2
1.0
   4.8806164826705860    0.0000000000000000    1.2591930989342652
   2.2778730995828642    4.3164466165021151    1.2591930989342652
   0.0000000000000000    0.0000000000000000   10.0882003445220771
Cr Ag Se
1 1 2
direct
   0.7300000000000000    0.7300000000000000    0.8100000000000001 Cr
   0.2700000000000000    0.2700000000000000    0.1900000000000000 Ag
   0.1400000000000000    0.1400000000000000    0.5800000000000000 Se
   0.0000000000000000    0.0000000000000000    0.0000000000000000 Se
