Cs2 Sn1 I6
1.0
   5.2844798300674025    0.0000000000000000    3.0509958524165635
   2.3739638104331346    6.7145836345948995    4.1118259350000006
   0.0000000000000000    0.0000000000000000    8.2236518699999994
Cs Sn I
2 1 6
direct
   0.7500000000000000    0.7500000000000000    0.7500000000000000 Cs+
   0.2500000000000000    0.2500000000000000    0.2500000000000000 Cs+
   0.0000000000000000    0.0000000000000000    0.0000000000000000 Sn4+
   0.7550000000000000    0.7550000000000000    0.2450000000000000 I-
   0.2450000000000000    0.7550000000000000    0.7550000000000000 I-
   0.7550000000000000    0.2450000000000000    0.7550000000000000 I-
   0.7550000000000000    0.2450000000000000    0.2450000000000000 I-
   0.2450000000000000    0.7550000000000000    0.2450000000000000 I-
   0.2450000000000000    0.2450000000000000    0.7550000000000000 I-
