K2 Os1 Cl6
1.0
   5.9577714232783237    0.0000000000000000    3.4397209350000009
   1.9859238077594414    5.6170407655460419    3.4397209350000009
   0.0000000000000000    0.0000000000000000    6.8794418700000000
K Os Cl
2 1 6
direct
   0.7500000000000000    0.7500000000000000    0.7500000000000000 K+
   0.2500000000000000    0.2500000000000000    0.2500000000000000 K+
   0.0000000000000000    0.0000000000000000    0.0000000000000000 Os4+
   0.7570000000000000    0.7570000000000000    0.2430000000000000 Cl-
   0.2430000000000000    0.7570000000000000    0.7570000000000000 Cl-
   0.7570000000000000    0.2430000000000000    0.7570000000000000 Cl-
   0.7570000000000000    0.2430000000000000    0.2430000000000000 Cl-
   0.2430000000000000    0.7570000000000000    0.2430000000000000 Cl-
   0.2430000000000000    0.2430000000000000    0.7570000000000000 Cl-
