K2 Os1 Br6
1.0
   6.3074360909390128    0.0000000000000000    3.6415999250000008
   2.1024786969796714    5.9467077757383269    3.6415999250000008
   0.0000000000000000    0.0000000000000000    7.2831998499999999
K Os Br
2 1 6
direct
   0.8473735623016938    0.6950462490397490    0.7165897247577351 K+
   0.3356538373155761    0.1674968019189297    0.1436031815475833 K+
   0.0122355333912961    0.0172033275077633    0.9851892757649855 Os4+
   0.8122003249673435    0.7593179473050582    0.2562824384364422 Br-
   0.1858239635936896    0.8073304054939019    0.7786264142021118 Br-
   0.7579508175380516    0.2518904281040514    0.7808370702625911 Br-
   0.7471443898434474    0.2336713063635945    0.2081882541895965 Br-
   0.1636600839715088    0.8257651643276083    0.2108666440259128 Br-
   0.1326335638233059    0.2410251727241457    0.8644304447796305 Br-
