Tl2 Sn1 Cl6
1.0
   6.1053531852468357    0.0000000000000000    3.5249273050000007
   2.0351177284156123    5.7561821851025670    3.5249273050000007
   0.0000000000000000    0.0000000000000000    7.0498546099999997
Tl Sn Cl
2 1 6
direct
   0.7830670973929394    0.7698641891588965    0.7574077643201800 Tl+
   0.2617303161281107    0.1394223827734100    0.3941515152368474 Tl+
   0.9970322866650214    0.9332793853246902    0.0027762960767451 Sn4+
   0.7176108105798574    0.7109969075948211    0.2786290493612316 Cl-
   0.1422680482443414    0.8133879543101221    0.8289112288888154 Cl-
   0.7545116938527132    0.1350130601489659    0.8870392745008254 Cl-
   0.6474071760855464    0.2907939710094004    0.1803658229853531 Cl-
   0.2851326748986031    0.7433035955839421    0.2496496743146729 Cl-
   0.2950924656475175    0.3176798302857881    0.6186302521616955 Cl-
