Al2 Ag2 O4
1.0
   2.8959999999999999    0.0000000000000000    0.0000000000000002
  -1.4479999999999991    2.5080095693597348    0.0000000000000002
   0.0000000000000000    0.0000000000000000   12.2189999999999994
Al Ag O
2 2 4
direct
   0.8544280284696886    0.2067593756400820    0.9839203153652833 Al
   0.3282648806869615    0.9758541156769417    0.4803495554267607 Al
   0.5010179114741707    0.5889689553820876    0.2792215987350683 Ag
   0.8767374924280720    0.6373877171660268    0.7344122237525856 Ag
   0.4684224037478685    0.0054294360518055    0.1774292103042592 O
   0.4795079201384161    0.5839161605405430    0.5812170066590505 O
   0.4288634609792502    0.4313082765452855    0.4065624379117122 O
   0.0104123937222593    0.6456412635292248    0.9902637565408309 O
