Rb2 Pt1 Cl6
1.0
   6.0526891585327274    0.0000000000000000    3.4945217150000007
   2.0175630528442428    5.7065300645503862    3.4945217150000007
   0.0000000000000000    0.0000000000000000    6.9890434299999997
Rb Pt Cl
2 1 6
direct
   0.8122128513623821    0.6161319078972946    0.8123443171565088 Rb+
   0.3260692413347714    0.1829966715452802    0.1676381239690620 Rb+
   0.9406875442886270    0.0840870951372291    0.0829003197268434 Pt4+
   0.8579620250983309    0.6492666890171168    0.1917871367725382 Cl-
   0.1724382009419140    0.7905627638892206    0.8202941401823584 Cl-
   0.6657561455455308    0.2235455941800183    0.8159974781162233 Cl-
   0.8133688736360831    0.1514467880388607    0.2444355404880636 Cl-
   0.2874335452636459    0.7408897698855136    0.1587354443982929 Cl-
   0.2537625439285008    0.3377891367176887    0.6746590248752820 Cl-
