Cr1 Ag1 Se2
1.0
   3.5739684386305672    0.0000000000000000    0.9220794974797915
   1.6680365265373414    3.1608392155351175    0.9220794974797915
   0.0000000000000000    0.0000000000000000    7.3873679200000000
Cr Ag Se
1 1 2
direct
   0.7573587649544822    0.4111629002113594    0.7536067921682038 Cr
   0.0981954395156356    0.5159787388887785    0.2796918067974582 Ag
   0.9812168614545680    0.3843763802081601    0.4922157188558204 Se
   0.7536003461785862    0.5785072037021836    0.0894668910518326 Se
