Cr4 Ag2 Te8
1.0
   6.9632869672735547    0.0000000000000000    4.0202556050000009
   2.3210956557578517    6.5650499118760530    4.0202556050000009
   0.0000000000000000    0.0000000000000000    8.0405112100000000
Cr Ag Te
4 2 8
direct
   0.5000000000000000    0.5000000000000000    0.5000000000000000 Cr
   0.5000000000000000    0.5000000000000000    0.0000000000000000 Cr
   0.0000000000000000    0.5000000000000000    0.5000000000000000 Cr
   0.5000000000000000    0.0000000000000000    0.5000000000000000 Cr
   0.8750000000000000    0.8750000000000000    0.8750000000000000 Ag
   0.1250000000000000    0.1250000000000000    0.1250000000000000 Ag
   0.7380000000000000    0.7380000000000000    0.7380000000000000 Te
   0.2620000000000000    0.2620000000000000    0.7140000000000000 Te
   0.2860000000000000    0.7380000000000000    0.7380000000000000 Te
   0.2620000000000000    0.7140000000000000    0.2620000000000000 Te
   0.7380000000000000    0.7380000000000000    0.2860000000000000 Te
   0.7140000000000000    0.2620000000000000    0.2620000000000000 Te
   0.7380000000000000    0.2860000000000000    0.7380000000000000 Te
   0.2620000000000000    0.2620000000000000    0.2620000000000000 Te
