Rb2 Sn1 Cl6
1.0
   6.1843492253179981    0.0000000000000000    3.5705356900000007
   2.0614497417726665    5.8306603659308376    3.5705356900000007
   0.0000000000000000    0.0000000000000000    7.1410713799999996
Rb Sn Cl
2 1 6
direct
   0.8089119670316418    0.9105252564577465    0.6675444123524106 Rb+
   0.3056716987893223    0.0929866252078990    0.3990131313748878 Rb+
   0.8727005125659706    0.0376634239525029    0.9351781772894253 Sn4+
   0.6907217546856822    0.7388356891747229    0.2114097845835278 Cl-
   0.1102693736006249    0.8571445774470480    0.7283782791686046 Cl-
   0.8193019656860896    0.1537855988403787    0.7476398726092166 Cl-
   0.7430339247441829    0.3112779116424449    0.1472461101046068 Cl-
   0.1926597636436586    0.7461499521118826    0.1345561266817978 Cl-
   0.0170930722514318    0.2677588295686676    0.7779740398541479 Cl-
