Cs2 Ti1 Cl6
1.0
   6.2578339230207458    0.0000000000000000    3.6129621000000007
   2.0859446410069156    5.8999424033429131    3.6129621000000007
   0.0000000000000000    0.0000000000000000    5.5692332733675265
Cs Ti Cl
2 1 6
direct
   0.7500000000000000    0.7500000000000000    0.7500000000000000 Cs+
   0.2500000000000000    0.2500000000000000    0.2500000000000000 Cs+
   0.0000000000000000    0.0000000000000000    0.0000000000000000 Ti4+
   0.7700000000000000    0.7700000000000000    0.2300000000000000 Cl-
   0.2300000000000000    0.7700000000000000    0.7700000000000000 Cl-
   0.7700000000000000    0.2300000000000000    0.7700000000000000 Cl-
   0.7700000000000000    0.2300000000000000    0.2300000000000000 Cl-
   0.2300000000000000    0.7700000000000000    0.2300000000000000 Cl-
   0.2300000000000000    0.2300000000000000    0.7700000000000000 Cl-
