Cs4 V2 Ag2 S8
1.0
   5.6830745899987338    0.0000000000000000    1.3705397493362677
   2.8415372931252079    6.9714999969738756    0.6852698742416572
   0.0000000000000000    0.0000000000000000   12.4679769500000006
Cs V Ag S
4 2 2 8
direct
   0.8273141562035434    0.2439894449658671    0.8822806953086892 Cs
   0.6004997164672712    0.2425389556524762    0.6274476223107658 Cs
   0.9206701227020371    0.6792800433312542    0.0509429878874266 Cs
   0.4453688777203568    0.5321891793001488    0.3961811770922007 Cs
   0.8635809460225654    0.1745841959659462    0.1899187586287475 V
   0.0379547017308878    0.7892751867771479    0.7837649836221414 V
   0.5244917482574158    0.3083700175259097    0.2044528301371575 Ag
   0.7411017353377642    0.6287818249910223    0.7095283604717260 Ag
   0.3850262481553020    0.5387478296933943    0.7678679593552609 S
   0.8540744182206621    0.8053355372879066    0.8282653581173400 S
   0.4062879942748336    0.8246080998114044    0.6776472143405080 S
   0.1231227255414888    0.7656322613619366    0.5962574803922752 S
   0.6485351679841054    0.4595141105467626    0.1057418177587445 S
   0.0681817474203422    0.0101712212945177    0.1794580433012710 S
   0.7472178519301051    0.0283273558362387    0.4254011500219088 S
   0.8823930597155232    0.5540079346030061    0.3552832222208920 S
