Cs2 Ag1 F4
1.0
   5.8886585451448683    0.0000000000000000   -1.8088843883606009
  -0.5556550282835609    5.8623840671565413   -1.8088843883606009
   0.0000000000000000    0.0000000000000000   10.4894382504678276
Cs Ag F
2 1 4
direct
   0.3600000000000000    0.3600000000000000    0.7200000000000000 Cs
   0.6400000000000000    0.6400000000000000    0.2800000000000000 Cs
   0.0000000000000000    0.0000000000000000    0.0000000000000000 Ag
   0.1500000000000000    0.1500000000000000    0.3000000000000000 F
   0.8500000000000000    0.8500000000000000    0.7000000000000000 F
   0.0000000000000000    0.5000000000000000    0.0000000000000000 F
   0.5000000000000000    0.0000000000000000    0.0000000000000000 F
