Cs2 Ti1 Cl6
1.0
   6.2578339230207458    0.0000000000000000    3.6129621000000007
   2.0859446410069156    5.8999424033429131    3.6129621000000007
   0.0000000000000000    0.0000000000000000    7.2259241999999997
Cs Ti Cl
2 1 6
direct
   0.7123118272602285    0.7212214348181519    0.7759399601850764 Cs+
   0.2877541077221644    0.4130449224331487    0.1022162710321627 Cs+
   0.0079033435732648    0.9852772428107687    0.9966576743722380 Ti4+
   0.7665357714269856    0.7432165431776672    0.2126813726720699 Cl-
   0.2119640183442945    0.8846093619734873    0.7086454963900701 Cl-
   0.7742198759453679    0.2019538650793863    0.7806145570834409 Cl-
   0.7344900979892718    0.2326759023582965    0.2909100595303060 Cl-
   0.2877991189798245    0.8390970471503910    0.1308692419884467 Cl-
   0.2970768064101643    0.2488278590928236    0.7638688818862371 Cl-
