K2 Os1 Br6
1.0
   6.3074360909390128    0.0000000000000000    3.6415999250000008
   1.7591997758518889    4.9757683638668988    3.0470233924392525
   0.0000000000000000    0.0000000000000000    7.2831998499999999
K Os Br
2 1 6
direct
   0.7500000000000000    0.7500000000000000    0.7500000000000000 K+
   0.2500000000000000    0.2500000000000000    0.2500000000000000 K+
   0.0000000000000000    0.0000000000000000    0.0000000000000000 Os4+
   0.7560000000000000    0.7560000000000000    0.2440000000000000 Br-
   0.2440000000000000    0.7560000000000000    0.7560000000000000 Br-
   0.7560000000000000    0.2440000000000000    0.7560000000000000 Br-
   0.7560000000000000    0.2440000000000000    0.2440000000000000 Br-
   0.2440000000000000    0.7560000000000000    0.2440000000000000 Br-
   0.2440000000000000    0.2440000000000000    0.7560000000000000 Br-
