Re6 Os4
1.0
   4.5542187690734863    0.0000000000000000    1.5041080713272097
   2.3768106803718743    4.6299832148729809    0.4151872694492345
   0.0000000000000000    0.0000000000000000    6.9698286056518555
Re Os
6 4
direct
   0.1480360180139542    0.9050714373588562    0.5336008667945862 Re
   0.5244203209877013    0.8836796879768372    0.7379649281501770 Re
   0.6987994313240051    0.3334023356437684    0.4421701729297638 Re
   0.3996824622154236    0.2143369019031525    0.2371456623077393 Re
   0.5576658844947815    0.3472363352775574    0.8386608362197876 Re
   0.9965736269950867    0.2794919013977051    0.0359361991286278 Re
   0.0921717956662178    0.4178090691566467    0.6407181024551392 Os
   0.9577527046203613    0.8127225637435913    0.9414373636245728 Os
   0.8309468030929565    0.7418417334556580    0.3409558236598969 Os
   0.4112662374973298    0.7351493239402771    0.1388602852821350 Os
