Re2 Os14
1.0
   5.5063252449035645    0.0000000000000000    0.0001467940601284
  -2.7517910580783105    4.7672647861514985    0.0008436116622762
   0.0000000000000000    0.0000000000000000    8.8025026321411133
Re Os
2 14
direct
   0.8193468451499938    0.6770486235618591    0.1343998461961746 Re
   0.4859258830547332    0.0098106693476439    0.8849831819534302 Re
   0.3191302120685577    0.6755577325820923    0.1361916363239288 Os
   0.3192709684371948    0.1773927807807922    0.6345363855361938 Os
   0.9855441451072692    0.0091393012553453    0.8857210278511047 Os
   0.6529200077056885    0.8432146310806274    0.3855628371238708 Os
   0.1529209017753601    0.8432358503341675    0.3852404952049255 Os
   0.9859694838523864    0.5104552507400513    0.8856773376464844 Os
   0.8201742172241210    0.1770676672458649    0.6350140571594238 Os
   0.3189722299575806    0.1770982146263123    0.1363917291164398 Os
   0.8200389742851256    0.1772720515727997    0.1365411579608917 Os
   0.1528084427118301    0.3435057401657104    0.3848560452461243 Os
   0.8194420933723449    0.6767081618309021    0.6358097195625305 Os
   0.3187069594860077    0.6762598752975464    0.6350149512290955 Os
   0.4876190721988677    0.5104614496231079    0.8854533433914185 Os
   0.6528895497322083    0.3437677621841431    0.3852937519550323 Os
