Ir4 Os12
1.0
   5.5188050270080558    0.0000000000000000    0.0018517272546889
  -2.7548486780444819    4.7879945088032336   -0.0003690052835733
   0.0000000000000000    0.0000000000000000    8.7147464752197266
Ir Os
4 12
direct
   0.7828283309936523    0.3396071791648865    0.6235857605934143 Ir
   0.2836523056030273    0.3400486707687377    0.6207827925682068 Ir
   0.9494060873985291    0.6740362644195557    0.3715657293796539 Ir
   0.4499246776103973    0.6739729642868042    0.8727308511734009 Ir
   0.2836055457592010    0.8412826061248779    0.1219822615385056 Os
   0.7832080125808716    0.3408318161964417    0.1200966164469719 Os
   0.4511369168758392    0.6753641366958618    0.3712212741374969 Os
   0.4498541653156281    0.1733234971761703    0.8740654587745667 Os
   0.9496475458145142    0.1728263348340988    0.3696074187755585 Os
   0.4504504203796387    0.1737225204706192    0.3698543608188629 Os
   0.2832680940628052    0.8433265089988708    0.6215297579765320 Os
   0.9494943022727966    0.1731163710355759    0.8733149766921997 Os
   0.9507637619972229    0.6751207709312439    0.8724359869956970 Os
   0.7839287519454956    0.8431127667427062    0.6215501427650452 Os
   0.7830001711845398    0.8417494893074036    0.1217135861515999 Os
   0.2837445437908172    0.3405569791793823    0.1232144832611084 Os
