Ir1 Os4
1.0
   2.7045240402221675    0.0000000000000000   -0.3788122236728671
  -0.0532242331650304    2.7031177127846178   -0.3781322538852689
   0.0000000000000000    0.0000000000000000    9.8789043426513672
Ir Os
1 4
direct
   0.9960492253303529    0.0698917657136917    0.9114023447036743 Ir
   0.5969133377075195    0.6707881689071655    0.1129584759473801 Os
   0.1951022595167160    0.2690093517303467    0.3095739483833313 Os
   0.7970058917999268    0.8709256649017335    0.5128391981124878 Os
   0.3946740031242371    0.4687803685665131    0.7090590000152588 Os
