Ir2 Os4
1.0
   4.3762650489807129    0.0000000000000000    0.0011068381136287
   0.0005894819229278    4.1387123641781285   -2.3901145458221431
   0.0000000000000000    0.0000000000000000    4.7771053314208984
Ir Os
2 4
direct
   0.3166957199573517    0.7386061549186707    0.7611136436462402 Ir
   0.3167218267917633    0.0722083225846291    0.4274970889091492 Ir
   0.3170772194862366    0.4052073955535889    0.0939792543649674 Os
   0.8170222043991089    0.4054304957389832    0.7622221708297729 Os
   0.8172756433486938    0.0733360573649406    0.0942299365997314 Os
   0.8172095417976379    0.7374979853630066    0.4263556301593781 Os
