Ir1 Os3
1.0
   2.7575361728668213    0.0000000000000000    0.0000061252185331
   0.0008301732697009    4.3562320871866413    0.0010887888493003
   0.0000000000000000    0.0000000000000000    4.7807517051696777
Ir Os
1 3
direct
   0.4993072748184204    0.9128330349922180    0.4262900054454803 Ir
   0.9992043375968933    0.9129053950309753    0.9291024804115295 Os
   0.9992890357971191    0.4129284918308258    0.2604249715805054 Os
   0.4992927014827728    0.4129068851470947    0.7618753910064697 Os
