Ir4 Os8
1.0
   3.8087558746337891    0.0000000000000000   -0.6327217817306515
  -0.1105707007584433    3.8090365362727301   -0.6354798078536987
   0.0000000000000000    0.0000000000000000   11.8534870147705078
Ir Os
4 8
direct
   0.4811126887798309    0.9422999620437622    0.1497928500175476 Ir
   0.7309713959693909    0.6920031309127807    0.6499803662300110 Ir
   0.8139896988868713    0.2751114368438721    0.8162100911140442 Ir
   0.0638828128576279    0.0252703204751015    0.3161984086036682 Ir
   0.1477144509553909    0.6080639362335204    0.4822380244731903 Os
   0.9792546033859253    0.4405295848846436    0.1463810950517654 Os
   0.2293988466262817    0.1903421282768250    0.6464399099349976 Os
   0.3159122765064240    0.7767302989959717    0.8194853067398071 Os
   0.6474813222885132    0.1086172312498093    0.4829185605049133 Os
   0.8976157307624817    0.8583157658576964    0.9824665784835815 Os
   0.3975624144077301    0.3582608997821808    0.9826070666313171 Os
   0.5655101537704468    0.5265442132949828    0.3196035325527191 Os
