Ir4 Os1
1.0
   2.7030870914459224    0.0000000000000000   -0.3778128921985633
  -0.0536652981408953    2.7063688156828718   -0.3780972361564637
   0.0000000000000000    0.0000000000000000    9.8999528884887695
Ir Os
4 1
direct
   0.9960674047470093    0.5777566432952881    0.8641169071197510 Ir
   0.1966628879308701    0.7788607478141786    0.2657050490379333 Ir
   0.5944437980651855    0.1764029711484909    0.0610583126544952 Ir
   0.3932788670063019    0.9751054644584656    0.6590322852134705 Ir
   0.7951917052268982    0.3771982192993164    0.4626970887184143 Os
