Re1 Ir2 W1
1.0
   2.7663362026214604    0.0000000000000000    0.0042526349425316
   0.0072004515587645    4.4567302711503576    0.0057854955084623
   0.0000000000000000    0.0000000000000000    4.8721175193786621
Re Ir W
1 2 1
direct
   0.6113891601562500    0.2431278377771378    0.2396693974733353 Re
   0.1121178939938545    0.2433867901563644    0.7414912581443787 Ir
   0.1117579340934754    0.7431983947753906    0.0822858810424805 Ir
   0.6118606328964233    0.7435165643692017    0.5752679705619812 W
