Re2 Ir3 Os6
1.0
   3.8354449272155762    0.0000000000000000   -0.6634079813957219
  -0.1131575090883677    3.8628377446834516   -0.6740483641624452
   0.0000000000000000    0.0000000000000000   11.3284349441528320
Re Ir Os
2 3 6
direct
   0.4901771247386932    0.3671624660491943    0.7689183950424193 Re
   0.8334859609603882    0.7088429927825928    0.4525278508663177 Re
   0.9087103009223938    0.2842794954776764    0.6032893657684326 Ir
   0.7586914896965027    0.1346048116683960    0.3039683699607849 Ir
   0.0823811814188957    0.4591048359870911    0.9516150355339049 Ir
   0.6689947247505188    0.5457390546798706    0.1254483461380005 Os
   0.2579420208930969    0.6334870457649232    0.3015713393688202 Os
   0.5845776796340942    0.9612805247306825    0.9564890861511229 Os
   0.1734987795352936    0.0506672598421574    0.1344261169433594 Os
   0.9959088563919067    0.8723376393318177    0.7797597646713256 Os
   0.4070362746715546    0.7837740182876588    0.6017687320709229 Os
