Re8 Os2
1.0
   4.8472962379455566    0.0000000000000000   -0.0004746207850985
  -2.4085506682758515    4.3509635956556654   -1.6790541410446171
   0.0000000000000000    0.0000000000000000    7.1339726448059082
Re Os
8 2
direct
   0.9610085487365723    0.1815186589956284    0.5251269340515137 Re
   0.4282433986663818    0.7857007980346680    0.6236327886581421 Re
   0.5629220604896545    0.3855703473091126    0.7246808409690858 Re
   0.1623124778270722    0.5816566944122316    0.9270593523979188 Re
   0.0261381715536118    0.9820578694343567    0.8257179260253907 Re
   0.7622348666191101    0.7891800403594972    0.1255963742733002 Re
   0.8282619118690491    0.5797920823097229    0.4248753786087037 Re
   0.6307626962661743    0.1884944289922714    0.0248300153762102 Re
   0.3602329492568970    0.9830319285392762    0.3240909576416016 Os
   0.2303206622600555    0.3845219016075135    0.2256710380315781 Os
