Ir1 Os9
1.0
   2.7299952507019039    0.0000000000000000   -0.0003815359377768
   0.0002077996590823    2.7289376179733775    0.0003066524805038
   0.0000000000000000    0.0000000000000000   19.3048667907714844
Ir Os
1 9
direct
   0.4590339958667755    0.4512636661529542    0.3768893480300903 Ir
   0.9608278274536132    0.9497782588005066    0.6781764030456543 Os
   0.9605299234390258    0.9498573541641236    0.0766398757696152 Os
   0.4598809480667114    0.4499090611934662    0.1773777008056641 Os
   0.9583297371864318    0.9494800567626954    0.4776857495307922 Os
   0.9612379074096679    0.9495058059692384    0.8769613504409790 Os
   0.4609245955944061    0.4496762752532960    0.9772271513938904 Os
   0.9584397077560424    0.9495218992233276    0.2749808728694916 Os
   0.4609922170639038    0.4498422145843506    0.7773325443267822 Os
   0.4590675234794616    0.4497422575950623    0.5771993398666382 Os
