Ir4 Os8
1.0
   3.8094413280487061    0.0000000000000000   -0.6235160231590270
  -0.1009771438507446    3.8138728736411092   -0.6263548731803896
   0.0000000000000000    0.0000000000000000   11.9102792739868164
Ir Os
4 8
direct
   0.4803556501865387    0.3992540240287781    0.8706676959991455 Ir
   0.6453018188476562    0.5644335746765137    0.2012815028429031 Ir
   0.3137587308883667    0.2328913956880570    0.5381447076797485 Ir
   0.8967311978340149    0.3154348134994507    0.7033623456954956 Ir
   0.0622812546789646    0.4812924861907960    0.0348692350089550 Os
   0.2295715659856796    0.6481034159660340    0.3688581287860870 Os
   0.7305061817169189    0.1498509794473648    0.3717093467712402 Os
   0.3966414034366608    0.8157075047492982    0.7034373283386230 Os
   0.8113576173782349    0.7305597662925720    0.5333237051963806 Os
   0.1479047834873199    0.0669698640704155    0.2064385712146759 Os
   0.5634339451789856    0.9824446439743043    0.0374569296836853 Os
   0.9801411032676697    0.8992732167243958    0.8705689907073975 Os
