Os7 W3
1.0
   4.5567922592163086    0.0000000000000000    1.6773929595947268
   2.0979677088759279    4.6381346848709528    1.3585712909698491
   0.0000000000000000    0.0000000000000000    7.1419496536254883
Os W
7 3
direct
   0.6255640983581543    0.0543432980775833    0.9136031866073610 Os
   0.0073608802631497    0.0968787744641304    0.1107765287160874 Os
   0.2918239235877990    0.6457158327102661    0.4082911014556885 Os
   0.7779547572135926    0.4728197455406190    0.6074811220169067 Os
   0.4979044795036316    0.5735164880752563    0.0120692122727633 Os
   0.8670843243598937    0.6442310810089112    0.2110568135976792 Os
   0.3500949740409851    0.1628191918134689    0.3083559274673462 Os
   0.2430472373962402    0.9661675691604615    0.7177753448486328 W
   0.1230712234973907    0.5130559206008911    0.8135666251182556 W
   0.7562589645385742    0.0499548688530922    0.5126200318336487 W
