Ir3 Os3
1.0
   2.7557413578033447    0.0000000000000000    0.0002827266289386
  -1.3771102020674277    4.8464857325945383   -1.1984529495239253
   0.0000000000000000    0.0000000000000000    6.4848599433898926
Ir Os
3 3
direct
   0.7103175520896912    0.3435522913932800    0.0732925459742546 Ir
   0.9892162084579468    0.9016992449760437    0.1351659893989563 Ir
   0.3228525221347809    0.5687934160232544    0.7926247715950012 Ir
   0.6550513505935669    0.2331839203834534    0.4630430936813354 Os
   0.0454505123198032    0.0138160716742277    0.7368553280830383 Os
   0.3784458339214325    0.6801267862319946    0.4109478294849396 Os
