Ir8 Os5
1.0
   2.7378492355346680    0.0000000000000000   -0.2312285751104353
  -0.0419016210839587    4.3366873191493687   -0.5909798741340633
   0.0000000000000000    0.0000000000000000   16.0396709442138672
Ir Os
8 5
direct
   0.2064808011054993    0.0395292490720749    0.1663518399000168 Ir
   0.5275403261184692    0.3600393831729889    0.8091101050376892 Ir
   0.3308091461658478    0.6626625657081604    0.4134999513626099 Ir
   0.1048330590128899    0.4375020861625671    0.9625324010848999 Ir
   0.9037886261940002    0.7349816560745239    0.5587926506996155 Ir
   0.7906757593154907    0.1229716762900352    0.3333333333333333 Ir
   0.0540361255407333    0.8865135908126830    0.8621785044670105 Ir
   0.6808367967605591    0.5130005478858948    0.1147061288356781 Ir
   0.4782304167747498    0.8102671504020691    0.7088289260864258 Os
   0.6313196420669556    0.9638748764991760    0.0152706280350685 Os
   0.3764629364013672    0.2080660313367844    0.5050841569900513 Os
   0.9518448114395142    0.2846552431583405    0.6565179824829102 Os
   0.2526682019233704    0.5848795175552368    0.2573371529579163 Os
