Re2 Ir5 Os7 Ru2
1.0
   4.3548583984374991    0.0000000000000000   -0.0087492624297737
  -0.0125794877563788    4.7619500899406306   -0.0060549862682817
   0.0000000000000000    0.0000000000000000   11.0375328063964844
Re Ir Os Ru
2 5 7 2
direct
   0.7964287996292114    0.4596615433692932    0.7300758957862854 Re
   0.2971498966217041    0.2919922173023224    0.6051713824272156 Re
   0.2968371212482452    0.7917370796203612    0.9782640337944031 Ir
   0.2971657216548920    0.2915593981742859    0.3538786172866821 Ir
   0.7970704436302185    0.4600683152675628    0.4786199629306793 Ir
   0.7968536615371704    0.9593579173088073    0.1046149358153343 Ir
   0.2969074547290802    0.7913193106651305    0.2297468334436417 Ir
   0.2972275018692017    0.2912487387657166    0.8557900190353394 Os
   0.7969499826431274    0.9604488015174865    0.8541744947433472 Os
   0.7966686487197876    0.9565499424934387    0.3568648695945740 Os
   0.7966270446777344    0.9570711255073546    0.6054782867431641 Os
   0.7969605326652527    0.4555711150169373    0.2288104295730591 Os
   0.2968791425228119    0.7957818508148193    0.4819281995296478 Os
   0.2965898811817169    0.7974313497543335    0.7310236096382141 Os
   0.2970817089080811    0.2947615981101990    0.1036557927727699 Ru
   0.7966725826263428    0.4588896930217743    0.9797576665878296 Ru
