Os11 W3
1.0
   4.3780198097229004    0.0000000000000000    0.1594723016023637
  -1.8845289325114862    6.1276503890822287   -1.6312003135681155
   0.0000000000000000    0.0000000000000000    7.9731054306030273
Os W
11 3
direct
   0.1115533858537674    0.7038891911506653    0.5828895568847655 Os
   0.6592659354209900    0.0027129808440804    0.5102844238281249 Os
   0.5621327161788940    0.6012792587280273    0.3146135807037353 Os
   0.0063839564099908    0.3115133643150329    0.3891341388225555 Os
   0.5272575020790100    0.5263677835464478    0.9468473196029662 Os
   0.9582640528678894    0.3579738140106201    0.7532374858856200 Os
   0.3475662767887115    0.1943219304084778    0.1165544018149376 Os
   0.1424529999494553    0.7790399193763733    0.9488419890403746 Os
   0.7115530371665955    0.9504282474517822    0.1443326473236084 Os
   0.3184390366077423    0.1139743700623512    0.7778201699256896 Os
   0.5080621242523193    0.4236876070499420    0.5885322690010070 Os
   0.9668076038360596    0.4262249469757080    0.1025382876396179 W
   0.1597653925418853    0.8868917822837828    0.3108944594860076 W
   0.6996197700500488    0.8705686926841736    0.7903813719749450 W
