Ir5 Os10 Ru3
1.0
   4.3470869064331055    0.0000000000000000   -0.0003448017814664
   0.0002667220594611    4.6829328461029922   -0.8987910747528076
   0.0000000000000000    0.0000000000000000   12.6217861175537109
Ir Os Ru
5 10 3
direct
   0.4711294770240784    0.9267777800559996    0.2336065918207169 Ir
   0.9710036516189575    0.8182287812232970    0.6776658296585083 Ir
   0.9709554314613342    0.1503026783466339    0.3446276187896729 Ir
   0.9711382389068604    0.9284725189208984    0.9016230106353760 Ir
   0.4710406959056854    0.1517856568098068    0.6769520044326782 Ir
   0.9711243510246277    0.5926418304443359    0.2329577058553696 Os
   0.9710611701011658    0.3759611248970032    0.7898376584053040 Os
   0.9710922837257385    0.4840713143348694    0.0123923830688000 Os
   0.9710381031036377    0.0388421490788460    0.1223393306136131 Os
   0.4711067080497742    0.5944193601608276    0.5653812289237976 Os
   0.4712269902229309    0.0400292687118053    0.4561214148998260 Os
   0.9711281657218933    0.7085567712783812    0.4562416076660156 Os
   0.4711828827857971    0.3700664341449737    0.1212863698601723 Os
   0.4711332321166992    0.2639334499835967    0.9005894660949707 Os
   0.4709049165248871    0.7050638794898987    0.7898252606391907 Os
   0.4709153473377228    0.4849146902561187    0.3449109792709351 Ru
   0.9707178473472595    0.2640290260314941    0.5659762024879456 Ru
   0.4711095690727234    0.8163174390792846    0.0119252931326628 Ru
