Re2 Ir6 Os4
1.0
   3.8906867504119869    0.0000000000000000    0.0061610341072084
   0.0172817407131180    5.4882006351545050    0.0344862639904022
   0.0000000000000000    0.0000000000000000    8.2450532913208008
Re Ir Os
2 6 4
direct
   0.9729456305503845    0.0981304347515106    0.8824199438095093 Re
   0.4729395210742950    0.8442429304122925    0.3753305077552795 Re
   0.9730989933013916    0.5998838543891907    0.2161749005317688 Ir
   0.4728751778602600    0.3462075591087341    0.3805684447288513 Ir
   0.4727637171745300    0.3445252180099487    0.0398506745696068 Ir
   0.4728983342647552    0.8455211520195008    0.7102608084678650 Ir
   0.9726914167404175    0.0951698422431946    0.5450694561004639 Ir
   0.4730581939220428    0.8478959798812867    0.0480594895780087 Ir
   0.4730084836483002    0.3477168381214142    0.7162413001060486 Os
   0.9727067351341248    0.5940852165222169    0.8728406429290771 Os
   0.9729443192481995    0.0941893681883812    0.2104913890361786 Os
   0.9729229211807251    0.5969071388244630    0.5455921888351440 Os
