Re16 B4
1.0
   4.6377844810485849    0.0000000000000000   -0.0198250282555832
  -0.0090537760105948    7.0299548022137595   -2.8579974174499516
   0.0000000000000000    0.0000000000000000    8.1259899139404297
Re B
16 4
direct
   0.8285558223724365    0.2826527953147888    0.2499052584171295 Re
   0.7923670411109924    0.6529029607772827    0.2372147887945175 Re
   0.8096875548362732    0.8929680585861206    0.0454058721661568 Re
   0.9897469282150269    0.5767353773117067    0.5611912608146667 Re
   0.3106036484241486    0.4679605960845948    0.2649311721324921 Re
   0.5249806642532349    0.1545512676239014    0.7378733754158020 Re
   0.2936241626739502    0.7073490023612977    0.0723696053028107 Re
   0.5553990602493286    0.0341329276561737    0.3569435775279999 Re
   0.7649843692779541    0.5339251756668092    0.8556334376335145 Re
   0.4898269176483154    0.7844204902648927    0.7486619353294373 Re
   0.2606183588504791    0.8271285295486451    0.4548107981681824 Re
   0.3276833593845367    0.0780036598443985    0.0623742491006851 Re
   0.0534154325723648    0.3271391093730927    0.9557859301567078 Re
   0.5062457919120789    0.3941474556922913    0.5458136200904846 Re
   0.0245723649859428    0.2077739089727402    0.5753172039985657 Re
   0.0077898926101625    0.9666521549224854    0.7653454542160034 Re
   0.0737284272909164    0.9948349595069886    0.2821492254734040 B
   0.7427324652671814    0.8653570413589479    0.5287670493125916 B
   0.2452584654092789    0.4950185120105744    0.7818846702575684 B
   0.5743567943572998    0.3663627505302429    0.0291986167430878 B
