Os12 Ru4
1.0
   4.7254681587219238    0.0000000000000000   -0.0000120362710734
   0.0013879977872991    5.4750173716684527    0.0006785405566915
   0.0000000000000000    0.0000000000000000    8.7688446044921875
Os Ru
12 4
direct
   0.3019167780876160    0.2558087408542633    0.6785825490951538 Os
   0.3016731441020966    0.2557682394981384    0.1773841828107834 Os
   0.1347770094871521    0.0058281682431698    0.9277513623237610 Os
   0.4663897454738617    0.0048442161642015    0.4278069734573364 Os
   0.8011087775230408    0.5054803490638733    0.6777222156524658 Os
   0.9674637317657471    0.7551329731941222    0.4277300834655762 Os
   0.8007572889328003    0.0056379651650786    0.1779746860265732 Os
   0.6343068480491638    0.2559069395065307    0.9278762936592102 Os
   0.2995967864990234    0.7551504969596862    0.6775220036506653 Os
   0.3001354038715363    0.7550631165504454    0.1781659871339798 Os
   0.8005151152610779    0.5056057572364807    0.1780575662851334 Os
   0.8008819818496704    0.0055007217451930    0.6780182123184204 Os
   0.4680095911026001    0.5048407316207886    0.4280679523944855 Ru
   0.6353506445884705    0.7557191848754883    0.9274849295616150 Ru
   0.9667643904685974    0.2553227245807648    0.4281765818595886 Ru
   0.1340101659297943    0.5059728622436522    0.9279514551162720 Ru
