Re2 Mo3 Os5
1.0
   4.8313136100769034    0.0000000000000000    0.0007824877975506
  -2.4089688865236383    4.3486656528472372   -1.6895582675933842
   0.0000000000000000    0.0000000000000000    7.1397857666015625
Re Mo Os
2 3 5
direct
   0.6012260913848877    0.5017364025115967    0.1064368337392807 Re
   0.2690611481666565    0.5026334524154663    0.6053813695907593 Re
   0.9981221556663513    0.3003348708152771    0.9030191898345947 Mo
   0.3940184712409973    0.0934242308139801    0.7006314992904663 Mo
   0.0656598508358002    0.0920958146452904    0.2006936371326447 Mo
   0.7939212322235107    0.8895016312599181    0.5017090439796448 Os
   0.6702085733413696    0.3008719682693481    0.4028037786483765 Os
   0.8620262145996094    0.7004856467247009    0.8008812665939331 Os
   0.2002540677785873    0.6987794041633606    0.3025708794593811 Os
   0.4612027406692505    0.8922458887100220    0.0038092136383057 Os
