Os11 W3
1.0
   4.4446067810058594    0.0000000000000000    0.3739429414272307
  -1.9092868150678008    6.1460605710370597   -1.6118997335433964
   0.0000000000000000    0.0000000000000000    7.8660840988159180
Os W
11 3
direct
   0.2668187320232391    0.1180479452013969    0.9176946878433229 Os
   0.4678024947643280    0.6254418492317199    0.4475907981395722 Os
   0.2346694618463516    0.3057398200035095    0.6446939706802369 Os
   0.6276336908340454    0.0466073863208294    0.6271746754646302 Os
   0.6402104496955872    0.9557736515998840    0.2714910209178925 Os
   0.7409838438034058    0.4369761943817138    0.8317741155624391 Os
   0.8281065821647644    0.2909695804119110    0.1036335155367851 Os
   0.0787590965628623    0.7715964317321776    0.0863684490323067 Os
   0.2534717321395874    0.1966541707515717    0.2769805788993836 Os
   0.0721321329474449    0.8747268915176392    0.4459746479988099 Os
   0.1467177569866180    0.7251506447792053    0.7231968641281129 Os
   0.6616608500480652    0.8623887300491333    0.9039030075073243 W
   0.4304623007774352    0.5358306765556334    0.1147218048572540 W
   0.8242690563201904    0.3900931775569916    0.4597592651844025 W
