Re5 Ir6 Os9
1.0
   4.3682727813720703    0.0000000000000000   -0.0003506481007209
  -0.0017143918949199    4.8033482353128161   -0.0047087324783214
   0.0000000000000000    0.0000000000000000   13.8788757324218750
Re Ir Os
5 6 9
direct
   0.9489043951034546    0.9529814124107361    0.8090826869010925 Re
   0.4483655989170074    0.2819426953792572    0.6091425418853760 Re
   0.9491848349571228    0.4526847600936890    0.3103449940681458 Re
   0.4492464363574982    0.7844057679176331    0.1106742769479752 Re
   0.4492551684379578    0.2845378518104553    0.0087219988927245 Re
   0.4488492608070374    0.7846238017082214    0.9096062183380127 Ir
   0.9492281079292297    0.4522214233875275    0.9093049168586731 Ir
   0.9488198161125183    0.9500758051872253    0.4104615449905396 Ir
   0.4489957392215729    0.7833874225616455    0.5105558633804321 Ir
   0.9490246772766113    0.9510555267333983    0.2097961157560349 Ir
   0.4491072595119476    0.2834477126598358    0.2094337046146393 Ir
   0.4489724934101105    0.7844372987747192    0.3102218508720398 Os
   0.4488356113433838    0.2854172289371490    0.4091449379920959 Os
   0.9488788247108459    0.9492018222808838    0.6099250912666321 Os
   0.4491122961044312    0.2835708558559418    0.8085138797760010 Os
   0.9489831924438477    0.4489580094814301    0.5112452507019043 Os
   0.9487824440002441    0.4498576223850251    0.7102362513542175 Os
   0.9494756460189819    0.9521092772483827    0.0109709501266479 Os
   0.9491647481918335    0.4528094530105591    0.1091390997171402 Os
   0.4493071138858795    0.7853037714958191    0.7096735835075378 Os
