Re6 Ir9
1.0
   3.8748381137847900    0.0000000000000000    0.0010474578011784
  -0.0022246421926933    3.8790415106705827    0.0008983083534990
   0.0000000000000000    0.0000000000000000   15.2269382476806641
Re Ir
6 9
direct
   0.1965658962726593    0.6925631761550903    0.1873238831758499 Re
   0.6966383457183838    0.6923613548278807    0.5689913630485535 Re
   0.1971262842416763    0.1933158040046692    0.0575463958084583 Re
   0.6963794231414795    0.6927589774131775    0.8236782550811768 Re
   0.6966809034347534    0.1926281154155731    0.7007825374603271 Re
   0.6967163681983948    0.1924024373292923    0.1836904883384705 Re
   0.1968826055526733    0.6927441358566283    0.4454683959484100 Ir
   0.1970459818840027    0.1928597539663315    0.5703359842300415 Ir
   0.6966323852539062    0.6927514672279357    0.3112252950668335 Ir
   0.6968476772308350    0.1927499771118164    0.4442791044712067 Ir
   0.1963846981525421    0.1929679214954376    0.8211238384246826 Ir
   0.1967243403196335    0.6928160190582274    0.6970352530479431 Ir
   0.1968166530132294    0.1927176564931870    0.3136664628982544 Ir
   0.6968180537223816    0.6927354931831359    0.0627258792519569 Ir
   0.1971790939569473    0.6930020451545714    0.9408894181251525 Ir
