Ir12 W3
1.0
   5.5070848464965811    0.0000000000000000    0.0113912886008615
  -2.7467491163241111    4.7765268844144435    0.0145836202427741
   0.0000000000000000    0.0000000000000000    8.9328699111938477
Ir W
12 3
direct
   0.5870097279548645    0.8012506365776062    0.0921999514102936 Ir
   0.4201306998729706    0.9666045308113098    0.8418928980827332 Ir
   0.9197627305984497    0.9660696983337401    0.3419791758060455 Ir
   0.0837467461824417    0.2983132302761078    0.0917564034461975 Ir
   0.9197136163711548    0.4661240279674530    0.3419624567031860 Ir
   0.9201964735984802    0.9666960239410399    0.8419624567031860 Ir
   0.4197150468826293    0.9661290049552916    0.3416005074977875 Ir
   0.9198904037475586    0.4662415385246276    0.8423000574111938 Ir
   0.2523654997348785    0.1309049278497696    0.5918412804603577 Ir
   0.2521125376224518    0.6339929103851318    0.5917531251907349 Ir
   0.5874863266944885    0.2985012233257294    0.0921804532408714 Ir
   0.7558855414390564    0.6341140270233154    0.5918458104133606 Ir
   0.7532840967178345    0.1326050013303757    0.5984303951263428 W
   0.0865035653114319    0.7998113036155701    0.0854231193661690 W
   0.4199272990226746    0.4662438333034515    0.3420757651329041 W
