Re4 Os6
1.0
   4.3915824890136719    0.0000000000000000    0.0001207405584861
   0.0007514573674062    4.5556907034047294   -1.5655092000961308
   0.0000000000000000    0.0000000000000000    7.3410367965698242
Re Os
4 6
direct
   0.8628188967704773    0.2552325129508973    0.2780242264270782 Re
   0.8629602193832397    0.4533517062664032    0.6796009540557861 Re
   0.3628334701061249    0.9195956587791443    0.2809766232967377 Re
   0.3628174662590027    0.7212621569633484    0.8793140649795532 Re
   0.8628696799278259    0.6552821397781372    0.0802177712321281 Os
   0.3628873825073242    0.1187422871589661    0.6787077188491821 Os
   0.8627921342849731    0.0557487010955811    0.8803144097328186 Os
   0.3629836738109589    0.3189573585987091    0.0782242342829704 Os
   0.8629677891731262    0.8552736043930054    0.4807938337326050 Os
   0.3629745244979858    0.5193350315093994    0.4788005053997040 Os
