Ir6 Os6
1.0
   2.7252485752105713    0.0000000000000000   -0.0012109280796725
  -0.0055754291739802    3.8487472681556087   -0.0027369519229990
   0.0000000000000000    0.0000000000000000   16.4284343719482422
Ir Os
6 6
direct
   0.3141915798187256    0.0430797822773457    0.1025254726409912 Ir
   0.8141792416572571    0.5436303019523622    0.8511035442352295 Ir
   0.8148056268692017    0.5436430573463440    0.5180050134658813 Ir
   0.3131659328937531    0.0434718914330006    0.2686204016208649 Ir
   0.3146865367889404    0.0438366495072842    0.6040950417518616 Ir
   0.3138779103755951    0.0433165580034256    0.9369655847549438 Ir
   0.3138820827007294    0.0436741448938847    0.4334057271480560 Os
   0.8137516975402832    0.5434930324554443    0.3534367084503174 Os
   0.8132162094116211    0.5430296659469604    0.1851432770490646 Os
   0.8147169351577759    0.5438753962516785    0.6863783001899719 Os
   0.8131432533264160    0.5430274605751039    0.0189704168587923 Os
   0.3148459494113922    0.0434012338519096    0.7689474821090698 Os
