Os14 W2
1.0
   5.5236835479736328    0.0000000000000000    0.0051193987019362
  -2.7564696529164938    4.7863357111373048    0.0040846704505384
   0.0000000000000000    0.0000000000000000    8.8488798141479492
Os W
14 2
direct
   0.9090687632560730    0.0077675050124526    0.8972979187965393 Os
   0.9092501997947693    0.5047224760055542    0.8979536890983582 Os
   0.5742088556289672    0.8388793468475341    0.6470740437507629 Os
   0.5742064714431762    0.8385727405548095    0.1477223634719849 Os
   0.2405755817890167    0.1734374463558197    0.3972775936126709 Os
   0.5749709606170654    0.3384729921817780    0.6475227475166321 Os
   0.0751694440841674    0.3395377099514007    0.6479705572128296 Os
   0.2403815090656281    0.6706962585449219    0.3975089192390442 Os
   0.7441846728324890    0.1738525629043579    0.3976182043552399 Os
   0.4067201912403107    0.5047474503517151    0.8976842761039734 Os
   0.5749620795249939    0.3380285799503326    0.1477423459291458 Os
   0.0753694251179695    0.3394781053066254    0.1475664973258972 Os
   0.0745247453451157    0.8391729593276978    0.6475902795791626 Os
   0.0745939537882805    0.8395333290100098    0.1474851369857788 Os
   0.7410297393798828    0.6721981167793273    0.3976224958896637 W
   0.4073150157928467    0.0053146593272686    0.8973879814147949 W
