Re3 Os9
1.0
   3.8226530551910400    0.0000000000000000   -0.6246636509895337
  -0.1027780884051710    3.8195281360956659   -0.6269985437393186
   0.0000000000000000    0.0000000000000000   11.9561710357666016
Re Os
3 9
direct
   0.9900500774383546    0.8716503381729126    0.7699754834175110 Re
   0.0738068073987961    0.4552147686481475    0.9375569224357603 Re
   0.6570748090744019    0.5389579534530639    0.1046829149127007 Re
   0.4901367723941804    0.3716707229614257    0.7704367637634277 Os
   0.8237764835357667    0.7053094506263733    0.4367927014827728 Os
   0.1570269912481308    0.0385808534920216    0.1035178378224373 Os
   0.7415966987609864    0.1229938864707947    0.2717977166175842 Os
   0.3240100741386414    0.2054895013570785    0.4362157881259918 Os
   0.5733150243759155    0.9551733136177062    0.9367353320121765 Os
   0.9067516922950746    0.2881264686584472    0.6024349927902222 Os
   0.2408857792615891    0.6226346492767333    0.2714054882526398 Os
   0.4065704643726349    0.7879976630210876    0.6016697287559509 Os
