Ir6 Os6
1.0
   4.3759956359863281    0.0000000000000000   -0.0003455297555770
  -0.0003989160373244    4.7728829217143707    0.0090128872543566
   0.0000000000000000    0.0000000000000000    8.2896232604980469
Ir Os
6 6
direct
   0.9115322828292847    0.0783021971583366    0.9006420373916626 Ir
   0.4111832976341248    0.4098382890224457    0.2314257323741913 Ir
   0.4110540747642517    0.9119324684143066    0.0626020282506943 Ir
   0.4114584922790527    0.9147530794143678    0.4010242521762848 Ir
   0.9118970632553101    0.0810925662517548    0.5641855597496033 Ir
   0.9117386341094971    0.5773801207542419    0.3974188268184662 Ir
   0.9115001559257507    0.0760759040713310    0.2303528934717178 Os
   0.4115310311317444    0.9138544797897339    0.7311947345733643 Os
   0.9117903113365173    0.5813949108123779    0.7325064539909363 Os
   0.9114272594451904    0.5764961838722229    0.0649399757385254 Os
   0.4114914834499359    0.4150414466857910    0.5685579180717468 Os
   0.4114765226840973    0.4145934879779816    0.8957111239433289 Os
