Os10 Ru2
1.0
   4.3442459106445312    0.0000000000000000    0.0015270221047091
   0.0008822217609954    5.4081105466331625   -1.0406090021133425
   0.0000000000000000    0.0000000000000000    7.2778716087341309
Os Ru
10 2
direct
   0.8167771697044373    0.0056207161396742    0.5855773687362671 Os
   0.8167349696159363    0.1721320897340775    0.2525264620780945 Os
   0.3169809579849243    0.6187770366668701    0.0307262521237135 Os
   0.3164902329444885    0.1168744713068008    0.0311066824942827 Os
   0.8169196248054504    0.3403279483318329    0.9195904135704041 Os
   0.3169320523738861    0.2839552164077759    0.6980254054069519 Os
   0.3171570897102356    0.4507381021976470    0.3633855879306793 Os
   0.8170248270034790    0.6741609573364258    0.2519932687282562 Os
   0.3171824514865875    0.7854909300804137    0.6974391937255859 Os
   0.8166435360908508    0.5072126984596252    0.5851800441741943 Os
   0.8166818022727966    0.8402824401855469    0.9199186563491821 Ru
   0.3164950013160706    0.9505685567855834    0.3631510138511658 Ru
