Os7 Ru1
1.0
   2.7587931156158447    0.0000000000000000    0.0014051571488381
   0.0035468005387110    4.3498091542642214    0.0006412411457848
   0.0000000000000000    0.0000000000000000    9.5406169891357422
Os Ru
7 1
direct
   0.3918599486351013    0.3595398068428040    0.4138329923152924 Os
   0.3918238282203674    0.3604594469070435    0.9134865999221802 Os
   0.8919620513916016    0.3600588738918304    0.1630942225456238 Os
   0.8918259143829346    0.3600998818874359    0.6645466685295105 Os
   0.3923093080520630    0.8603969216346740    0.0798978209495544 Os
   0.8919717073440552    0.8601337671279906    0.3307994008064270 Os
   0.3919314444065094    0.8597353100776672    0.5804803967475891 Os
   0.8920396566390991    0.8597986698150635    0.8316833972930908 Ru
