Re4 Os8
1.0
   4.6669530868530273    0.0000000000000000   -1.0424803495407107
  -0.4658201289951225    5.1006392111068921   -2.0907053947448730
   0.0000000000000000    0.0000000000000000    7.3377351760864258
Re Os
4 8
direct
   0.6994514465332031    0.0171808525919914    0.2226860076189041 Re
   0.4803020954132080    0.1867793798446655    0.5621773600578308 Re
   0.4813956022262573    0.6867110133171080    0.5604903101921082 Re
   0.9212040305137634    0.8490396738052368    0.8864702582359315 Re
   0.1992473155260086    0.2701233029365540    0.2239468097686768 Os
   0.9754421114921570    0.9354758262634276    0.5603765845298767 Os
   0.9188260436058044    0.3492011725902557    0.8870716094970704 Os
   0.4239780008792877    0.5995700359344482    0.8885384798049928 Os
   0.9756270051002502    0.4362613260746002    0.5606340765953064 Os
   0.1990069895982742    0.7658637762069701    0.2235103100538254 Os
   0.4237879812717438    0.1009466573596001    0.8885088562965394 Os
   0.7011275887489319    0.5182154178619385    0.2243191301822662 Os
