Os5 Ru1
1.0
   2.7506456375122070    0.0000000000000000    0.0008219314040614
  -1.3739605334120590    4.8185825251563887   -1.1667406558990476
   0.0000000000000000    0.0000000000000000    6.4476337432861328
Os Ru
5 1
direct
   0.0308957677334547    0.1678126603364944    0.0687577798962593 Os
   0.6415458917617798    0.3892171084880829    0.7900573015213013 Os
   0.3634701073169708    0.8327224850654602    0.7333565354347229 Os
   0.3083556890487670    0.7225236296653746    0.1227177605032921 Os
   0.6985077857971191    0.5025621652603149    0.4013156890869141 Os
   0.9759037494659424    0.0581187419593334    0.4581899642944336 Ru
