Re5 Ir6
1.0
   3.8403451442718506    0.0000000000000000   -0.6601914167404184
  -0.1173728184516332    3.8280970190245882   -0.6575030088424680
   0.0000000000000000    0.0000000000000000   11.4613170623779297
Re Ir
5 6
direct
   0.5580313205718994    0.0978514626622200    0.7004715800285339 Re
   0.8792126178741455    0.4185951054096222    0.3421608805656433 Re
   0.2195439934730530    0.7592665553092958    0.0250317640602589 Re
   0.9675739407539368    0.0081436289474368    0.5200595259666443 Re
   0.0538497939705849    0.5941258668899536    0.6926062107086182 Re
   0.1408037394285202    0.1806865632534027    0.8676332831382750 Ir
   0.7938743233680725    0.8335995674133301    0.1726695448160172 Ir
   0.4692422747612000    0.5095782876014709    0.5225592255592346 Ir
   0.3840504884719849    0.9238187670707704    0.3525140583515167 Ir
   0.6409608721733093    0.6808577775955200    0.8680694103240966 Ir
   0.2956034541130066    0.3348636925220490    0.1758909225463867 Ir
