Ir2 Os6
1.0
   3.7575459480285640    0.0000000000000000   -0.9113447666168213
  -0.2198282702462253    3.7544732790728839   -0.9154265522956848
   0.0000000000000000    0.0000000000000000    8.1942949295043945
Ir Os
2 6
direct
   0.0912011712789536    0.7084216475486756    0.1962960958480835 Ir
   0.7169607281684875    0.8337256908416748    0.4474409222602844 Ir
   0.5913066267967224    0.2082934677600861    0.1962892264127731 Os
   0.3405657708644867    0.9573529362678529    0.6948046088218689 Os
   0.8429973125457764    0.4601067304611207    0.7003426551818848 Os
   0.9653850197792053    0.0819478258490563    0.9439756870269775 Os
   0.2169660329818726    0.3337894082069397    0.4479744434356689 Os
   0.4678522646427155    0.5849006175994873    0.9495094418525696 Os
