Re3 Ir12
1.0
   5.4969515800476074    0.0000000000000000   -0.0092404596507562
  -2.7403466640321184    4.7675588440813019    0.0073024034500126
   0.0000000000000000    0.0000000000000000    8.8013973236083984
Re Ir
3 12
direct
   0.1025830432772636    0.0976450890302658    0.2462017834186554 Re
   0.4342974722385406    0.7633129954338074    0.5029646158218384 Re
   0.1036432683467865    0.5988775491714478    0.7511132359504700 Re
   0.2690152525901794    0.4341703951358795    0.0011570453643799 Ir
   0.6029255390167235    0.0978129878640175    0.7544034719467163 Ir
   0.9372953176498412    0.7667938470840453    0.5017578601837158 Ir
   0.4344830214977264    0.2637816667556762    0.5013030767440796 Ir
   0.6018370985984801    0.5986739397048949    0.2490423619747162 Ir
   0.7668473124504089    0.9303609132766723    0.0007752238307148 Ir
   0.9368183016777037    0.2636234462261200    0.5020923614501953 Ir
   0.2678180038928986    0.9299219250679015    0.0016902487259358 Ir
   0.6029940247535706    0.5984557867050171    0.7541764378547668 Ir
   0.1030711680650711    0.0983546674251556    0.7575736641883850 Ir
   0.6016607880592346    0.0968921631574631    0.2500727474689484 Ir
   0.1051532328128815    0.5991556644439697    0.2504883408546448 Ir
