Re6 Os4
1.0
   3.7562317848205571    0.0000000000000000   -1.0443906784057613
  -0.2963217468034604    5.4062309632868333   -1.0540173053741460
   0.0000000000000000    0.0000000000000000    7.2886395454406738
Re Os
6 4
direct
   0.6989088058471681    0.4442161321640015    0.3336396217346191 Re
   0.0989717170596123    0.6456052064895630    0.1339694857597351 Re
   0.4989008605480195    0.3444759249687195    0.9337060451507568 Re
   0.4985723495483399    0.8442859053611755    0.9330089688301086 Re
   0.8978497982025148    0.0429727099835873    0.7318433523178101 Re
   0.2983308732509614    0.2440730035305023    0.5324896574020386 Re
   0.8981605172157289    0.5446236729621887    0.7328436970710754 Os
   0.6985545158386232    0.9441899061203002    0.3335867524147034 Os
   0.2984820604324341    0.7441925406455993    0.5327221155166626 Os
   0.0988213792443276    0.1433130055665970    0.1331714391708374 Os
