Cr3 Os13
1.0
   5.4436249732971200    0.0000000000000000    0.0008063828572632
  -2.7240560167057595    4.7100416774524874    0.0014221927849575
   0.0000000000000000    0.0000000000000000    8.6768560409545898
Cr Os
3 13
direct
   0.4087686240673065    0.2678122520446777    0.0853035226464272 Cr
   0.0750569850206375    0.6012341380119324    0.3350379168987274 Cr
   0.4087519347667694    0.2673086524009705    0.5836639404296875 Cr
   0.5716556906700134    0.5937898755073547    0.3344892263412476 Os
   0.5716592073440552    0.1038044393062592    0.3341652452945709 Os
   0.9093735218048096    0.2696918547153473    0.0858179777860641 Os
   0.2447988837957382    0.4306680858135223    0.8332586288452148 Os
   0.4067166447639464    0.7661316990852355    0.0852678865194321 Os
   0.9098645448684692    0.2693096697330475    0.5820108056068420 Os
   0.7354282736778259    0.4306404292583466    0.8335355520248413 Os
   0.7418229579925537    0.9340185523033142    0.8338997960090637 Os
   0.9094270467758179    0.7660361528396605    0.0855237692594528 Os
   0.9092133045196533    0.7664498686790466    0.5825714468955994 Os
   0.4070068299770355    0.7671538591384887    0.5829931497573853 Os
   0.0823154076933861    0.1039565429091454    0.3339238762855530 Os
   0.2450666576623917    0.9406843781471251    0.8339709043502808 Os
