Os7 W3
1.0
   3.8957707881927490    0.0000000000000000    0.0123699512332675
   0.0148007846493652    6.2260690241222694    0.0079836575314396
   0.0000000000000000    0.0000000000000000    6.2093563079833984
Os W
7 3
direct
   0.6226718425750732    0.8890571594238280    0.2404723912477493 Os
   0.1225187703967094    0.5956155061721801    0.3377009332180023 Os
   0.1227045133709908    0.3908461630344391    0.7358839511871338 Os
   0.6224523782730103    0.6921375989913940    0.6328901648521423 Os
   0.1228958591818810    0.9859133958816528    0.5330821275711060 Os
   0.1226629689335823    0.1924105882644653    0.1339909136295319 Os
   0.6226807832717896    0.4917788505554199    0.0326376855373383 Os
   0.6225379705429077    0.2941610515117645    0.4257520437240601 W
   0.6224415302276611    0.0971106290817261    0.8387711048126221 W
   0.1227304413914680    0.7817014455795288    0.9383576512336731 W
