Re1 Ir1 Os2
1.0
   2.7332401275634766    0.0000000000000000   -0.0004751761443915
  -0.0017826150663395    4.4819179804568652   -1.5848778486251833
   0.0000000000000000    0.0000000000000000    4.7516183853149414
Re Ir Os
1 1 2
direct
   0.8343112468719482    0.6696254611015320    0.4482649862766266 Re
   0.8341713547706604    0.1696158051490784    0.9489306807518008 Ir
   0.3341773748397827    0.6695665121078491    0.9483509063720703 Os
   0.3341849744319916    0.1695455312728882    0.4487892687320709 Os
