Re2 Os2
1.0
   2.7612071037292480    0.0000000000000000   -0.0008572574006392
  -0.0021870460339897    4.3950881284884344   -0.0015175092266871
   0.0000000000000000    0.0000000000000000    4.7931160926818848
Re Os
2 2
direct
   0.8686665892601012    0.3761421740055084    0.1759513765573502 Re
   0.3683738708496094    0.8757531046867369    0.3478803634643555 Re
   0.8688364624977111    0.8762336373329163    0.8424267172813416 Os
   0.3683954775333405    0.3758624792098999    0.6815304160118103 Os
