Ir2 Os10
1.0
   4.3595085144042969    0.0000000000000000   -0.0035335901193320
  -0.0035038708343285    4.7777911689557184   -0.0046016634441907
   0.0000000000000000    0.0000000000000000    8.2865924835205078
Ir Os
2 10
direct
   0.3778785765171051    0.8508543968200682    0.1111712306737900 Ir
   0.8781013488769531    0.6823095679283142    0.6117283701896667 Ir
   0.8778779506683350    0.6836247444152832    0.2771742343902588 Os
   0.3773422539234161    0.3512620031833649    0.2785998880863190 Os
   0.3780747354030609    0.8498415350914000    0.7774320840835571 Os
   0.8780414462089539    0.1822185963392258    0.4436681866645813 Os
   0.3777840733528137    0.3477271497249603    0.6114133000373840 Os
   0.8779480457305908    0.1849435120820999    0.1116906851530075 Os
   0.3776460587978363    0.3509404957294464    0.9438576698303223 Os
   0.8781381249427795    0.6839056015014648    0.9449812173843384 Os
   0.8776737451553345    0.1819248497486115    0.7788016796112061 Os
   0.3781176209449768    0.8494544625282288    0.4457121789455414 Os
