Ir6 Os6
1.0
   4.3712472915649414    0.0000000000000000    0.0015297390054909
  -0.0009793351477875    4.7705167718825860   -0.0004500422801360
   0.0000000000000000    0.0000000000000000    8.2736263275146484
Ir Os
6 6
direct
   0.5064554810523987    0.8380138278007507    0.2412439882755280 Ir
   0.5068162679672241    0.3410665988922119    0.4086149036884308 Ir
   0.0070358593948185    0.1699503213167191    0.9089751243591309 Ir
   0.5073232650756836    0.3372286260128022    0.7448921799659729 Ir
   0.0073130428791046    0.6731703877449036    0.7411362528800964 Ir
   0.0064897611737251    0.1735071986913681    0.2445514649152756 Ir
   0.5073353648185730    0.8424986004829408    0.5756269097328186 Os
   0.0067606423981488    0.6684403419494629    0.0759765952825546 Os
   0.0072054886259139    0.1712864786386490    0.5739992260932922 Os
   0.5066955089569092    0.3399513661861420    0.0741999000310898 Os
   0.5069376230239868    0.8370801806449890    0.9105094075202942 Os
   0.0068878419697285    0.6743873357772828    0.4098527729511261 Os
