Ir5 Os11
1.0
   5.4867734909057617    0.0000000000000000    0.0002581195440127
  -2.7454049183015745    4.7474317681734135   -0.0000133148323582
   0.0000000000000000    0.0000000000000000    8.8264589309692383
Ir Os
5 11
direct
   0.4740417599678040    0.6635597944259645    0.2466625720262527 Ir
   0.3077964484691620    0.3297084867954254    0.9959706068038940 Ir
   0.8081682324409485    0.8304926156997682    0.4967095851898193 Ir
   0.3070696890354156    0.3296229839324951    0.4965898394584656 Ir
   0.8080090284347534    0.8300151824951172    0.9959269762039185 Ir
   0.8078535199165344    0.3299622535705566    0.4965451657772064 Os
   0.9748576879501343    0.6636935472488403    0.2464758753776550 Os
   0.8075978755950928    0.3297061026096344    0.9961761236190796 Os
   0.6403692364692689    0.9972048997879029    0.7465497255325317 Os
   0.3074355721473694    0.8304565548896790    0.4976641237735748 Os
   0.1402487456798553    0.4971797168254852    0.7465986013412476 Os
   0.4740790128707886    0.1621605455875397    0.2465605288743973 Os
   0.9739568829536438    0.1639567017555237    0.2455258965492249 Os
   0.6422566771507263    0.4957112073898315    0.7458086609840393 Os
   0.1414378881454468    0.9960443377494812    0.7468943595886230 Os
   0.3074035048484802    0.8304902911186218    0.9957430362701416 Os
