Re4 Ir6
1.0
   3.8888809680938721    0.0000000000000000    0.0001110917874031
  -0.0004416124508085    3.8183061821191551   -0.7648388147354125
   0.0000000000000000    0.0000000000000000    9.9028940200805664
Re Ir
4 6
direct
   0.6261025071144103    0.2490885704755783    0.5711700916290283 Re
   0.1264720112085342    0.3500447571277618    0.7733088135719299 Re
   0.1262602210044861    0.9503623247146605    0.9740396738052368 Re
   0.6259014010429381    0.8500099182128906    0.7738056778907776 Re
   0.1261590421199799    0.5495312213897704    0.1733653247356415 Ir
   0.6260339021682738    0.6495480537414551    0.3726897537708282 Ir
   0.1262863874435425    0.1514235734939575    0.3771384060382843 Ir
   0.1258481591939926    0.7500469684600830    0.5737147927284241 Ir
   0.6260879635810851    0.0476821511983871    0.1689329594373703 Ir
   0.6260896325111388    0.4493444561958313    0.9721757173538208 Ir
