Ir6 Ru4 Rh1
1.0
   3.8381783962249756    0.0000000000000000   -0.0003305163700132
  -1.9219082389883089    5.7326834798432138    0.0072016902267917
   0.0000000000000000    0.0000000000000000    7.6580815315246582
Ir Ru Rh
6 4 1
direct
   0.3940580487251283    0.5730031132698060    0.8746919631958007 Ir
   0.2286187261343003    0.2423743456602097    0.6258086562156676 Ir
   0.8925549387931826    0.5706385970115663    0.1256742328405380 Ir
   0.3914168477058411    0.5673578381538391    0.3767847716808319 Ir
   0.2278281450271607    0.2399860918521881    0.1273353099822998 Ir
   0.5606610178947449    0.9064346551895142    0.6241320371627807 Ir
   0.8929329514503481    0.5711517333984376    0.6231257915496825 Ru
   0.7265792489051820    0.2378511130809784    0.8747169375419616 Ru
   0.0618202462792397    0.9090520143508911    0.8733318448066710 Ru
   0.7297007441520692    0.2451951801776886    0.3768580257892608 Ru
   0.5610762834548950    0.9066402912139894    0.1280810534954071 Rh
