Re3 Ir5
1.0
   3.7873330116271973    0.0000000000000000   -0.9248865246772768
  -0.2234316243000757    3.7676372163648928   -0.9187139272689823
   0.0000000000000000    0.0000000000000000    8.2111911773681641
Re Ir
3 5
direct
   0.5473840832710266    0.6278809905052186    0.8579809665679932 Re
   0.6741465330123902    0.2547909617424012    0.1119178980588913 Re
   0.7999507784843446    0.8810825347900392    0.3637043535709381 Re
   0.1737702786922455    0.7543415427207948    0.1107737272977829 Ir
   0.0516886077821255    0.1327537596225739    0.8667455315589905 Ir
   0.9260627031326295    0.5061066150665283    0.6145755052566528 Ir
   0.2958254218101502    0.3766659200191498    0.3551642596721649 Ir
   0.4218080043792725    0.0026446580886841    0.6070024371147156 Ir
