Re10 Os4
1.0
   5.0634541511535645    0.0000000000000000    0.6303003430366501
   0.4653818855200682    6.0945401921012587    2.9863181114196777
   0.0000000000000000    0.0000000000000000    6.8425412178039551
Re Os
10 4
direct
   0.9579229950904846    0.3999256491661072    0.2095757573843002 Re
   0.4699221253395081    0.4951694309711456    0.1256243884563446 Re
   0.6489784717559814    0.7726451754570006    0.2979133129119874 Re
   0.0722213089466095    0.1076562330126762    0.6310757398605347 Re
   0.5655010342597963    0.9436621069908141    0.8663563132286071 Re
   0.7549707293510437    0.1959388852119446    0.0091425636783242 Re
   0.3605934977531434    0.7161952257156372    0.6893298625946044 Re
   0.8593209385871887    0.6509768366813660    0.7589607834815978 Re
   0.1531285494565964    0.5431385040283203    0.4606366455554962 Re
   0.1232408583164215    0.9715207815170288    0.3218750059604645 Re
   0.0744519531726837    0.8230455517768860    0.0191307924687862 Os
   0.2464841455221176    0.2810604572296143    0.9037279486656188 Os
   0.6061175465583801    0.0805513337254524    0.4410799443721771 Os
   0.6463288068771362    0.3883623480796814    0.5857059359550476 Os
