Ir5 Os11
1.0
   4.7456898689270020    0.0000000000000000   -0.0008680377504784
  -0.0024071776888974    5.4853310071575416   -0.0031507420353597
   0.0000000000000000    0.0000000000000000    8.8074989318847656
Ir Os
5 11
direct
   0.9694535136222839    0.8071079254150391    0.3918599486351013 Ir
   0.6385006308555603    0.3083509802818298    0.8924740552902222 Ir
   0.3060740828514099    0.8073259592056273    0.1418127119541168 Ir
   0.8040188550949097    0.5577967762947083    0.6422246694564819 Ir
   0.3021105229854584    0.3081333935260773    0.1425883769989014 Ir
   0.1371591836214066    0.5584070086479187    0.8920765519142151 Os
   0.3055001199245453    0.8089367747306824    0.6434280276298523 Os
   0.3027443587779999    0.3063327968120574    0.6411654949188232 Os
   0.4712667465209961    0.5569466352462769    0.3928530216217041 Os
   0.8039078712463379    0.5577812194824219    0.1422190070152283 Os
   0.4712963700294495    0.0586993321776390    0.3935152888298035 Os
   0.6378034353256226    0.8081485629081726    0.8918179869651794 Os
   0.9712616205215454    0.3075749278068542    0.3919671475887299 Os
   0.8043268322944641    0.0579167678952217    0.6423397660255432 Os
   0.1372111588716507    0.0570254549384117    0.8911207318305969 Os
   0.8039436936378479    0.0577193945646286    0.1423395574092865 Os
