Ir10 Os6 Ru2
1.0
   5.3487010002136230    0.0000000000000000   -0.1184329390525824
  -2.5122326744476320    4.7209867353826924    0.1192616075277328
   0.0000000000000000    0.0000000000000000   10.8406019210815430
Ir Os Ru
10 6 2
direct
   0.1101815700531006    0.4115997850894928    0.2870206534862518 Ir
   0.4540947973728180    0.0689204037189484    0.5066753029823304 Ir
   0.2744280695915222    0.2439789324998856    0.6944300532341003 Ir
   0.9530234932899475    0.5667074322700500    0.5108860731124878 Ir
   0.7828159332275391    0.7375093698501587    0.0984793603420258 Ir
   0.7758775949478149    0.7463786602020264    0.6938586831092834 Ir
   0.1135779470205307    0.9053549766540527    0.2972993552684784 Ir
   0.4505271315574646    0.5743490457534790    0.4904484748840332 Ir
   0.7775399684906006    0.2393805384635925    0.0699738413095474 Ir
   0.5365904569625854    0.4820830523967743    0.8985036611557007 Ir
   0.2792348563671112    0.2367129027843475    0.0995496138930321 Os
   0.9422825574874878    0.0750073790550232    0.4943709969520569 Os
   0.2820517718791962    0.7399873137474060    0.0351960770785809 Os
   0.2754015922546387    0.7448410987854004    0.7671269774436951 Os
   0.7784070372581482    0.2437447756528854    0.7275751829147339 Os
   0.6158617138862610    0.4017266035079956    0.2966580688953400 Os
   0.6065553426742554    0.9103028178215027    0.2866223752498627 Ru
   0.0179930105805397    0.9993551373481750    0.8956760764122009 Ru
