Re5 B3 Ir2
1.0
   2.8107128143310547    0.0000000000000000   -0.0006675685290248
   0.0029252366318458    6.5895574752566839    0.1751016527414326
   0.0000000000000000    0.0000000000000000    6.6592693328857422
Re B Ir
5 3 2
direct
   0.6009993553161621    0.6145216822624207    0.7278184890747070 Re
   0.6012868881225586    0.2239622175693512    0.9295729398727417 Re
   0.6008718013763428    0.2617439627647400    0.3788802027702332 Re
   0.6009404659271240    0.8174602985382080    0.3410783708095551 Re
   0.1013876944780350    0.8658598065376281    0.9831135869026184 Re
   0.1013804376125336    0.5457959175109863    0.4598502218723297 B
   0.1013317704200745    0.3449943959712982    0.6605707406997681 B
   0.1010896191000938    0.0905792564153671    0.1994162201881409 B
   0.1014020144939423    0.5110819935798645    0.1248391941189766 Ir
   0.1013707295060158    0.0068579139187932    0.6295949220657349 Ir
