Os9 W3
1.0
   3.8919992446899414    0.0000000000000000    0.0011235469719393
   0.0011028145528795    5.5304473731078128   -0.0208026245236401
   0.0000000000000000    0.0000000000000000    8.2922267913818359
Os W
9 3
direct
   0.3563424348831177    0.7759541869163513    0.6885234713554382 Os
   0.3563464879989624    0.7757782340049744    0.3552060723304749 Os
   0.3563942611217499    0.2800529897212982    0.6911649703979492 Os
   0.8560345768928528    0.5281230807304382    0.8531873822212219 Os
   0.8563442826271057    0.0264238081872463    0.1876792907714844 Os
   0.8563060164451599    0.5270422697067261    0.5246364474296570 Os
   0.3563286066055298    0.2801788449287415    0.0206147041171789 Os
   0.3562946021556854    0.2780018448829651    0.3541716635227203 Os
   0.8568557500839233    0.0311093870550394    0.8575457334518433 Os
   0.8562370538711548    0.5193387269973755    0.1965557336807251 W
   0.3562726080417633    0.7867008447647095    0.0169299319386482 W
   0.8563978672027588    0.0275654606521130    0.5203797817230225 W
