Re2 Ir2 Os1
1.0
   2.7584428787231450    0.0000000000000000   -0.0003634799504654
  -1.3778212879958280    2.3895006434865782   -0.0005255629657770
   0.0000000000000000    0.0000000000000000   11.1592254638671875
Re Ir Os
2 2 1
direct
   0.9168758392333984    0.8055662512779236    0.0377237871289253 Re
   0.2525013089179993    0.4732432663440705    0.4378570318222046 Re
   0.9167847633361816    0.8071335554122925    0.6356337070465088 Ir
   0.2491003125905991    0.4736701548099518    0.8403904438018799 Ir
   0.5849333405494690    0.1395457088947296    0.2372620701789856 Os
