Re3 Os13
1.0
   5.5213208198547363    0.0000000000000000   -0.0000680351950001
  -2.7592332068819596    4.7749003108272854   -0.0004111258313055
   0.0000000000000000    0.0000000000000000    8.7989349365234375
Re Os
3 13
direct
   0.6383321285247803    0.8144320249557495    0.8267910480499268 Re
   0.4712020158767701    0.4808702468872070    0.3276100456714630 Re
   0.9712263345718385    0.4795190095901489    0.3266792297363281 Re
   0.1381777077913284    0.8161110877990723    0.8275153636932373 Os
   0.8066686391830445    0.6487179398536682    0.5779150128364563 Os
   0.6378356218338013    0.3138290047645569    0.8267855644226074 Os
   0.1390481293201447    0.3143528997898102    0.8271378278732300 Os
   0.3050464391708374    0.1476723849773407    0.0763206258416176 Os
   0.8058834075927735    0.6475211381912231    0.0774634853005409 Os
   0.8058230876922609    0.1473155617713928    0.0776913911104202 Os
   0.4724917411804200    0.9822753667831421    0.3275644779205322 Os
   0.9732565283775331    0.9829269647598265    0.3266136050224304 Os
   0.3061361908912659    0.6487916707992554    0.0765234455466270 Os
   0.8049200773239137    0.1470273137092590    0.5759515762329102 Os
   0.3051019608974457    0.1478142887353897    0.5778378844261169 Os
   0.3065617978572845    0.6490346789360046    0.5781627893447876 Os
