Ir5 Os11
1.0
   5.4836416244506836    0.0000000000000000   -0.0044290646910672
  -2.7400836101054438    4.7483696615452047    0.0019387995125732
   0.0000000000000000    0.0000000000000000    8.8257884979248047
Ir Os
5 11
direct
   0.7666901350021362    0.8631396889686584    0.6963041424751282 Ir
   0.1002222895622253    0.5297934412956238    0.9471679925918579 Ir
   0.1004692092537880    0.0300692431628704    0.9483285546302795 Ir
   0.5999323725700378    0.5292820334434509    0.9481598138809204 Ir
   0.0996016561985016    0.5298146605491638    0.4484989345073700 Ir
   0.1004477441310883    0.0301401335746050    0.4460050463676453 Os
   0.9333891868591309    0.6967754960060120    0.1978122591972351 Os
   0.7654736042022705    0.3615924417972565    0.6976395249366760 Os
   0.6000375151634216    0.5291152000427246    0.4466094374656677 Os
   0.4331581294536592    0.6969832181930543    0.1985064744949341 Os
   0.9326786994934082    0.1964174360036850    0.1985676884651184 Os
   0.5998215079307556    0.0298281218856573    0.9495828747749329 Os
   0.2677887976169586    0.3626399040222168    0.6962902545928955 Os
   0.5994862914085388    0.0299501232802868    0.4462593197822571 Os
   0.2681728303432465    0.8642309904098512    0.6975814104080200 Os
   0.4335360527038574    0.1961482018232346    0.1978286653757095 Os
