Re3 Ir5 Os11
1.0
   4.3547039031982422    0.0000000000000000    0.0023908822331574
   0.0005421808178163    4.7617277790390560    0.0036065911408517
   0.0000000000000000    0.0000000000000000   13.7653255462646484
Re Ir Os
3 5 11
direct
   0.8684557676315308    0.1793744266033173    0.9293538331985474 Re
   0.8684911131858826    0.6829764246940613    0.0329931862652302 Re
   0.3682049214839935    0.5187841653823853    0.3364741504192352 Re
   0.3684402108192444    0.5185043215751648    0.9302743673324585 Ir
   0.8686075210571289    0.1846961975097656    0.1327157914638519 Ir
   0.3681504130363464    0.5131450891494751    0.5394339561462402 Ir
   0.8681316971778870    0.1796475648880005    0.3356881141662598 Ir
   0.3679015934467316    0.0155945578590035    0.4359536170959473 Ir
   0.8680687546730042    0.1791130155324936    0.5368487238883972 Os
   0.8680313229560852    0.6816466450691223    0.4386780560016632 Os
   0.8681807518005371    0.1801263540983200    0.7326920032501221 Os
   0.3681553602218628    0.0086653940379620    0.8306412100791931 Os
   0.3686933815479279    0.0174796190112829    0.0324816517531872 Os
   0.3678944408893585    0.5166221261024475    0.1334411948919296 Os
   0.8687760233879089    0.6860513091087342    0.2343633025884628 Os
   0.3683754205703735    0.0104682110249996    0.6373692154884338 Os
   0.8683341741561890    0.6806511878967285    0.8279185891151428 Os
   0.8681311607360840    0.6778038740158081    0.6388651728630066 Os
   0.3687747418880463    0.0162638518959284    0.2321688234806061 Os
