Re1 Ir2 Os1
1.0
   3.5360639095306396    0.0000000000000000   -1.6139824390411375
  -0.7472542227784409    3.4588339112848794   -1.6136928796768186
   0.0000000000000000    0.0000000000000000    4.7195463180541992
Re Ir Os
1 2 1
direct
   0.5058898925781250    0.1398974955081940    0.5852075219154358 Re
   0.2558380961418152    0.3898413479328156    0.0848408937454224 Ir
   0.0054901121184230    0.6406752467155457    0.5856517553329468 Ir
   0.7558880448341371    0.8903315663337709    0.0858332142233849 Os
