Ir2 Os4
1.0
   2.7554714679718018    0.0000000000000000   -0.0003171015123372
  -1.3840614109944480    4.8243693163890420   -1.1839263439178465
   0.0000000000000000    0.0000000000000000    6.4824266433715820
Ir Os
2 4
direct
   0.0041928011924028    0.0601397156715393    0.4331896901130676 Ir
   0.3886241614818574    0.8293481469154359    0.7100417017936707 Ir
   0.3342496156692505    0.7195418477058412    0.0968027040362358 Os
   0.7250362038612366    0.5015904307365417    0.3735137879848480 Os
   0.6680684685707092    0.3879774510860443    0.7691282033920288 Os
   0.0587430298328400    0.1697428375482559    0.0459746271371841 Os
