Re3 Os13
1.0
   5.5134496688842773    0.0000000000000000   -0.0006436930852944
  -2.7579190652367900    4.7728438391923262    0.0007239107508212
   0.0000000000000000    0.0000000000000000    8.8103141784667969
Re Os
3 13
direct
   0.8867174386978149    0.2493082284927368    0.3409654200077057 Re
   0.5538077354431152    0.5823046565055847    0.5900743007659912 Re
   0.8868663907051086    0.2492405176162720    0.8387054204940796 Re
   0.3865371644496918    0.7492507100105286    0.8411888480186462 Os
   0.8881865739822388    0.7496342062950134    0.3388705551624298 Os
   0.7206786870956420    0.9161427021026610    0.0898142158985138 Os
   0.3870312273502350    0.2483882308006287    0.8411374688148499 Os
   0.8880847692489624    0.7498043775558472    0.8414809703826904 Os
   0.2199398279190063    0.4152118563652039    0.0900484621524811 Os
   0.3870625495910645    0.7491998672485352    0.3389580547809601 Os
   0.2208102047443390    0.9158930182456971    0.0902092978358269 Os
   0.0534529611468315    0.0827979296445847    0.5896499752998352 Os
   0.5545176267623901    0.0826824009418488    0.5904179215431213 Os
   0.0533589199185371    0.5818508267402649    0.5900498628616333 Os
   0.3870211839675903    0.2484897673130035    0.3389138579368591 Os
   0.7207193970680237    0.4157154262065887    0.0896027535200119 Os
