Re1 Os5
1.0
   2.7576107978820801    0.0000000000000000    0.0008864719420667
  -1.3821430012505684    4.8491128295720332   -1.1869508028030396
   0.0000000000000000    0.0000000000000000    6.4814081192016602
Re Os
1 5
direct
   0.0560315474867821    0.6569057106971741    0.9154939055442810 Re
   0.7234503030776978    0.9910266995429993    0.2502801120281219 Os
   0.1124675795435905    0.7685718536376953    0.5277942419052125 Os
   0.4450699388980865    0.4346953630447388    0.1950757950544357 Os
   0.3893162906169891    0.3232422471046448    0.5833440423011780 Os
   0.7794880867004395    0.1027967408299446    0.8615385890007019 Os
