Os16
1.0
   5.4924683570861816    0.0000000000000000    0.0010061156935988
  -2.7322618448891802    4.7560249054858321    0.0007588926237059
   0.0000000000000000    0.0000000000000000    8.7963790893554688
Os
16
direct
   0.6559675931930542    0.2178007364273071    0.5647220015525818 Os
   0.1532102376222610    0.7197635173797607    0.0617995522916317 Os
   0.6517857313156128    0.7182430624961853    0.0630800947546959 Os
   0.9865865111351013    0.8863089680671692    0.8128858804702759 Os
   0.1542886793613434    0.2142679095268250    0.5641649365425110 Os
   0.4866086542606354    0.8838557600975037    0.8119410276412964 Os
   0.3225241899490356    0.5522703528404236    0.3117912113666534 Os
   0.6531860828399658    0.2191612124443054    0.0638708472251892 Os
   0.4855057895183563    0.3851287961006165    0.8133552670478821 Os
   0.1571085304021835    0.7175495624542236    0.5614298582077026 Os
   0.8205384612083435    0.5511057972908020    0.3120737969875336 Os
   0.9889740943908691    0.3840388953685760    0.8141681551933289 Os
   0.3198354542255402    0.0504223369061947    0.3128277063369751 Os
   0.6549704074859619    0.7160892486572266    0.5620777010917664 Os
   0.1552141755819321    0.2174862474203110    0.0652587413787842 Os
   0.8177316784858704    0.0476692728698254    0.3172073960304260 Os
