Ir4 Os12
1.0
   5.4989938735961905    0.0000000000000000    0.0069359387271110
  -2.7463548272638723    4.7617748132563058   -0.0010683678556230
   0.0000000000000000    0.0000000000000000    8.8304767608642578
Ir Os
4 12
direct
   0.5573230385780334    0.8430848121643066    0.4258750081062317 Ir
   0.0570782460272311    0.8430519700050353    0.9263494014739990 Ir
   0.5573425292968749    0.3428309857845306    0.9247131943702698 Ir
   0.2237015068531036    0.6764467954635620    0.6761006116867065 Ir
   0.0564969480037688    0.8431310057640075    0.4253014922142029 Os
   0.3907086253166199    0.0103460010141134    0.1763519942760468 Os
   0.5572170019149780    0.3427896499633789    0.4260895550251007 Os
   0.0571174100041389    0.3423947393894196    0.4248198270797729 Os
   0.2229892164468765    0.1766839325428009    0.6749591827392578 Os
   0.8903723955154419    0.0095376353710890    0.1757650673389435 Os
   0.8900195360183716    0.5090055465698242    0.1764975935220718 Os
   0.5580080747604370    0.8436217308044432    0.9273676872253418 Os
   0.7248420119285583    0.1763057112693787    0.6757355332374573 Os
   0.3910752236843109    0.5094798803329468    0.1753739118576050 Os
   0.7240859270095825    0.6770110726356506    0.6752554178237915 Os
   0.0563452318310738    0.3421595096588135    0.9271238446235657 Os
