Re1 Ir2 Os5
1.0
   4.3689208030700675    0.0000000000000000   -0.0040760976262394
  -0.0072976124607645    4.7780028880512360   -2.7678368091583252
   0.0000000000000000    0.0000000000000000    5.5213060379028320
Re Ir Os
1 2 5
direct
   0.2758265435695648    0.1628282964229584    0.5273076295852661 Re
   0.7762699127197266    0.9961050152778627    0.6945990324020386 Ir
   0.7760454416275024    0.4974497258663177    0.6944076418876648 Ir
   0.2756946384906769    0.6626819968223572    0.5261559486389160 Os
   0.2762567996978760    0.1658816486597061    0.0298867002129555 Os
   0.7765352725982666    0.4980603754520416    0.1961596906185151 Os
   0.2766682505607605    0.6634704470634460    0.0294872056692839 Os
   0.7758826613426208    0.9976139664649963    0.1958761066198349 Os
