Re3 Os9
1.0
   4.3324642181396484    0.0000000000000000    0.0003489443042779
  -2.1650112407493798    3.7488207149599893   -0.0016892751445997
   0.0000000000000000    0.0000000000000000   10.8596639633178711
Re Os
3 9
direct
   0.2741748988628387    0.2966605126857757    0.8404560685157776 Re
   0.6070414185523986    0.9625461697578429    0.4669461548328400 Re
   0.9403809309005737    0.6286097764968871    0.3408214747905731 Re
   0.6071724295616150    0.9624170660972595    0.2138012498617172 Os
   0.9408057332038879    0.6288059353828429    0.8406103849411011 Os
   0.2740692794322968    0.2961208224296569    0.0894121900200844 Os
   0.6071226596832274    0.9623310565948485    0.7129827737808228 Os
   0.2735738754272461    0.2962985634803771    0.3401792347431183 Os
   0.2737189233303070    0.2958989143371582    0.5907755494117737 Os
   0.6077937483787537    0.9629629254341125    0.9672257304191589 Os
   0.9408439993858337    0.6286070942878723    0.5897886157035828 Os
   0.9410524368286133    0.6286906599998473    0.0910880714654922 Os
