Ir15 Ru3
1.0
   3.8326745033264160    0.0000000000000000    0.0005024119163866
  -0.0034665432167415    3.8234220525512645    0.0008516999077980
   0.0000000000000000    0.0000000000000000   19.0286655426025391
Ir Ru
15 3
direct
   0.4911412298679352    0.4773130118846893    0.5134880542755127 Ir
   0.9908519387245178    0.9771533012390136    0.3151105344295502 Ir
   0.4909004867076874    0.9765281677246094    0.2191704958677292 Ir
   0.4908577203750610    0.9769570231437683    0.6152679920196533 Ir
   0.4904974699020386    0.9770929217338562    0.4140555262565613 Ir
   0.9901771545410156    0.9768071174621581    0.1185634210705757 Ir
   0.9902763366699219    0.9766104221343993    0.7211598157882690 Ir
   0.9912741780281067    0.4766995906829834    0.6156205534934998 Ir
   0.9904061555862427    0.4769234359264374    0.4152602553367615 Ir
   0.4900058805942535    0.4765977561473846    0.1199443638324738 Ir
   0.4906854629516602    0.9767583012580872    0.8216608166694641 Ir
   0.4904241561889648    0.4767552316188812    0.9243907332420349 Ir
   0.9904093146324158    0.4765299856662750    0.8227564692497253 Ir
   0.4907411634922028    0.4766079485416412    0.7200459241867065 Ir
   0.9903168678283691    0.9769583940505980    0.9242158532142639 Ir
   0.9908964037895203    0.9771633744239806    0.5132318139076233 Ru
   0.4898098707199097    0.9767506718635559    0.0225732810795307 Ru
   0.9903941154479980    0.4767891466617584    0.2179614603519440 Ru
