Re5 Ir4 W1
1.0
   2.7469224929809570    0.0000000000000000   -0.0002647067012731
  -0.0023184731996247    2.7468378296042184   -0.0001723580935506
   0.0000000000000000    0.0000000000000000   19.7265548706054688
Re Ir W
5 4 1
direct
   0.2773543298244476    0.9732856750488280    0.7185325622558594 Re
   0.2779801785945892    0.9736927151679993    0.5115180015563965 Re
   0.2780590355396271    0.9737864732742310    0.1148427128791809 Re
   0.2789294123649597    0.9742214679718016    0.3138924539089203 Re
   0.2779794037342072    0.9734531044960021    0.9158709049224854 Re
   0.7787550091743469    0.4739639461040496    0.2144439965486526 Ir
   0.7782282233238220    0.4736371338367462    0.4123199880123138 Ir
   0.7774617671966553    0.4728820621967316    0.0151653951033950 Ir
   0.7779567241668701    0.4732945561408996    0.8172069191932678 Ir
   0.7782458066940308    0.4736748933792114    0.6142348051071167 W
