Ir6 Os10
1.0
   5.4882855415344238    0.0000000000000000   -0.0020035677589474
  -2.7334739843299749    4.7474936020736367    0.0022469100076695
   0.0000000000000000    0.0000000000000000    8.8335876464843750
Ir Os
6 10
direct
   0.4855225980281830    0.9997968673706055    0.7818298935890198 Ir
   0.1537973731756210    0.8346029520034789    0.0325188897550106 Ir
   0.1535493433475494    0.8342918753623962    0.5320662260055542 Ir
   0.1535417139530182    0.3342631757259369    0.5321664214134216 Ir
   0.8212381005287170    0.6688494086265564    0.2826133668422699 Ir
   0.1537320166826248    0.3344419598579407    0.0326171591877937 Ir
   0.4868893921375275    0.5011285543441772    0.7824248671531677 Os
   0.6533724665641785    0.3344812691211700    0.5325978398323059 Os
   0.6535068154335022    0.8344781994819641    0.0318815447390079 Os
   0.6534281969070435    0.3345979154109955    0.0326278023421764 Os
   0.9838615655899048    0.4993106424808502    0.7814089059829712 Os
   0.3220655322074890    0.6684400439262389    0.2827930152416229 Os
   0.3222516477108002    0.1686288267374039    0.2824160456657410 Os
   0.8195326328277588    0.1680432409048080    0.2829387485980988 Os
   0.9844875931739807    0.9997067451477050    0.7816627025604248 Os
   0.6533480286598206    0.8345740437507629    0.5326237678527832 Os
