Re4 Os11
1.0
   5.4886341094970694    0.0000000000000000    0.0004944079555574
  -2.7543801835249737    4.6575157389308934   -0.8582851886749271
   0.0000000000000000    0.0000000000000000    9.0247259140014648
Re Os
4 11
direct
   0.4070210158824921    0.4091338515281677    0.7327725887298584 Re
   0.2838229835033417    0.1633747667074203    0.9946602582931519 Re
   0.5323518514633179    0.6625590324401854    0.4878978133201599 Re
   0.6602599024772644    0.9178839921951293    0.2405536770820618 Re
   0.7827348709106445    0.1616023182868958    0.9819950461387634 Os
   0.6594504714012146    0.4139371514320374    0.2382683008909225 Os
   0.9072799682617188    0.4120138585567474    0.7354945540428162 Os
   0.2829036712646484    0.6618058085441588    0.9872395396232605 Os
   0.0325381085276604    0.1642908602952957    0.4881132245063782 Os
   0.1583626866340637    0.4128757119178772    0.2381470948457718 Os
   0.4088516831398010    0.9141014218330382    0.7370963692665100 Os
   0.1600421518087387    0.9159239530563354    0.2408055067062378 Os
   0.7825545668601990    0.6624791622161864    0.9873357415199280 Os
   0.9079244732856750    0.9137600660324096    0.7371496558189392 Os
   0.5351476669311523    0.1638156175613403    0.4874807596206665 Os
