Os4 W6
1.0
   4.6921091079711914    0.0000000000000000    1.5413818359374991
   2.3499049666760081    4.7308165020904234    0.7726565003395085
   0.0000000000000000    0.0000000000000000    7.0254015922546387
Os W
4 6
direct
   0.1192964091897011    0.2539107203483582    0.1019153594970703 Os
   0.7681166529655457    0.9550099968910217    0.6033526659011841 Os
   0.4990573227405548    0.3478013575077057    0.3016074895858765 Os
   0.2416212707757950    0.8614830970764160    0.8025078773498535 Os
   0.6608025431632996    0.2995081245899200    0.9096723794937134 W
   0.3568760454654694    0.9110167026519775    0.4107967913150787 W
   0.6698511838912964    0.7588437199592589    0.9998876452445984 W
   0.0242126937955618    0.7943390011787415    0.2011847943067551 W
   0.8233928680419922    0.4514575600624084    0.4992983937263489 W
   0.2132901996374130    0.4148561656475067    0.7010759115219116 W
