Ir4 Os8
1.0
   3.7975840568542480    0.0000000000000000   -0.6365947723388673
  -0.1196649139934889    3.7928543804132619   -0.6408156752586376
   0.0000000000000000    0.0000000000000000   11.8414459228515625
Ir Os
4 8
direct
   0.5748428702354431    0.9120797514915466    0.0727407559752464 Ir
   0.7395751476287842    0.0771035030484200    0.4019243419170380 Ir
   0.9896894693374635    0.8267500996589660    0.9018241763114929 Ir
   0.8250957727432252    0.6617561578750609    0.5728104114532471 Ir
   0.3240444958209991    0.1607550531625748    0.5714015364646912 Os
   0.4901877939701081    0.3276590406894683    0.9043449163436890 Os
   0.4085085391998292    0.7445527911186217    0.7392805814743042 Os
   0.6582977771759032    0.4954876601696014    0.2399125248193741 Os
   0.9065737128257753    0.2432148903608322    0.7352502942085266 Os
   0.1564941406250000    0.9931926131248474    0.2357211560010910 Os
   0.0740391388535500    0.4104177951812744    0.0703430771827698 Os
   0.2408953309059143    0.5775511860847472    0.4040433466434479 Os
