Ir2 Os10
1.0
   4.3547730445861816    0.0000000000000000    0.0005153051461090
  -0.0001511169702069    4.7842931723570574    0.0028742654249075
   0.0000000000000000    0.0000000000000000    8.2938985824584961
Ir Os
2 10
direct
   0.5576211810112000    0.3286572396755219    0.2008834332227707 Ir
   0.0572510883212090    0.9976637959480286    0.8667416572570801 Ir
   0.5573440790176392    0.8295750617980956    0.6991856098175049 Os
   0.0576448887586594    0.9930133819580078    0.2016850262880325 Os
   0.5574139356613159    0.3296048641204834    0.5355353355407715 Os
   0.0575301572680473    0.4977747201919556    0.6995041966438293 Os
   0.5575686693191528    0.8293141126632690    0.0343783684074879 Os
   0.0576361455023289    0.4970941245555878    0.0336823910474777 Os
   0.0572565011680126    0.9962691068649291    0.5323632359504700 Os
   0.0574862509965897    0.4960053861141205    0.3676046133041382 Os
   0.5573576688766479    0.8284215331077576    0.3682425320148468 Os
   0.5575274229049683    0.3332462012767792    0.8660956621170044 Os
