Re1 Ir1 Os2
1.0
   2.7573528289794922    0.0000000000000000   -0.0002939801779581
   0.0002952558821078    4.3808593650503500   -0.0013131008017804
   0.0000000000000000    0.0000000000000000    4.7995920181274414
Re Ir Os
1 1 2
direct
   0.3801218271255493    0.7916902303695679    0.1576817929744720 Re
   0.8800411224365234    0.2915052175521851    0.9889725446701050 Ir
   0.3797752261161804    0.2914550304412842    0.4894271194934845 Os
   0.8797734379768372    0.7918260097503662    0.6516625881195068 Os
