Ir5 Os7
1.0
   3.8085770606994629    0.0000000000000000   -0.6248137354850773
  -0.1032186814666143    3.8104773610644247   -0.6257421374320982
   0.0000000000000000    0.0000000000000000   11.8900089263916016
Ir Os
5 7
direct
   0.3997649848461151    0.2248009443283081    0.3996667265892029 Ir
   0.1489435583353043    0.4735764265060424    0.8972448706626890 Ir
   0.3136263489723206    0.6384872794151306    0.2271753102540970 Ir
   0.8146556615829468    0.1398111283779144    0.2292521595954895 Ir
   0.5638545751571655    0.3885509073734283    0.7269690632820129 Ir
   0.0648220777511597    0.8893582820892333    0.7285016775131226 Os
   0.2313496768474579    0.0566262677311897    0.0632702186703682 Os
   0.8984654545783997    0.7235040068626404    0.3976466953754425 Os
   0.6488719582557678    0.9739428162574768    0.8969261646270752 Os
   0.7296192049980164    0.5542790293693542    0.0594036169350147 Os
   0.9820503592491151    0.3069127798080444    0.5637444853782654 Os
   0.4810506105422974    0.8059741258621216    0.5617950558662415 Os
