Ir4 Os8
1.0
   4.3737335205078134    0.0000000000000000   -0.0013662322890022
   0.0007572628076349    4.7834157344314008    0.0024962476454671
   0.0000000000000000    0.0000000000000000    8.2819356918334961
Ir Os
4 8
direct
   0.0072312839329243    0.1929553002119064    0.0899371877312660 Ir
   0.0079266075044870    0.1923767924308777    0.7535818815231323 Ir
   0.5072581171989441    0.3588519096374512    0.2535612881183624 Ir
   0.5075995922088623    0.3587641716003418    0.5884696841239929 Ir
   0.0072711603716016    0.6938455700874330    0.2551845908164978 Os
   0.0076045105233788    0.6938321590423584    0.5870169997215271 Os
   0.5072424411773682    0.8568678498268127    0.0869950577616692 Os
   0.5074204206466675    0.8623930215835572    0.4209666848182678 Os
   0.5077114701271057    0.3588839471340179    0.9208019971847534 Os
   0.0069588692858815    0.6891144514083863    0.9211173057556152 Os
   0.0082102753221989    0.1928580999374390    0.4225479662418365 Os
   0.5078489780426025    0.8573753237724305    0.7564868330955505 Os
