Re3 Ir9 Os7
1.0
   4.3604607582092285    0.0000000000000000   -0.0001862816570792
  -0.0011712711594774    4.7752974981111516   -0.0154055720195177
   0.0000000000000000    0.0000000000000000   13.7490329742431641
Re Ir Os
3 9 7
direct
   0.0155009068548679    0.6217280626296998    0.7342603802680969 Re
   0.5157461762428284    0.7950291037559509    0.2435761839151382 Re
   0.0157487317919731    0.1342140436172485    0.4443954527378082 Re
   0.5156525373458862    0.7919456958770753    0.0420479141175747 Ir
   0.0157548822462559    0.1262173801660538    0.0417210347950459 Ir
   0.5158379077911377    0.2907793223857880    0.9384015202522278 Ir
   0.5158094167709351    0.2960168421268463    0.3428562879562378 Ir
   0.0155545687302947    0.6286948323249817    0.5404561758041382 Ir
   0.5158925652503967    0.8054982423782349    0.4441745579242706 Ir
   0.0158390998840332    0.1276687830686569    0.6364458799362183 Ir
   0.0161810666322708    0.1213915795087814    0.8399103283882141 Ir
   0.0157803855836391    0.6249970197677612    0.9393373131752014 Ir
   0.5160994529724121    0.2853911817073822    0.7383582592010498 Os
   0.0155633380636573    0.6250730156898499    0.1425508260726929 Os
   0.5158559083938599    0.2940923273563385    0.1407329887151718 Os
   0.5157552957534790    0.7905816435813905    0.6386919617652893 Os
   0.0154410470277071    0.1305014640092850    0.2406637519598007 Os
   0.5158613920211792    0.7896873950958252    0.8391873836517334 Os
   0.0160390492528677    0.6309419274330139    0.3433553874492645 Os
