Re8 C2
1.0
   5.2035632133483887    0.0000000000000000   -1.4374575614929215
  -2.8234314208922351    4.3709871242086802   -1.4466867446899416
   0.0000000000000000    0.0000000000000000    5.7663092613220215
Re C
8 2
direct
   0.0156282279640436    0.6121807098388672    0.3940065205097198 Re
   0.9339246153831482    0.0376765392720699    0.7383313775062561 Re
   0.9376657009124756    0.0342923738062382    0.2390320748090744 Re
   0.4120232760906219    0.5041205883026123    0.2237083017826080 Re
   0.4033889472484589    0.5104248523712158    0.7231279015541077 Re
   0.5053805112838745    0.0978443399071693    0.4118271470069885 Re
   0.9985113143920898    0.6057668328285217    0.9121143221855164 Re
   0.5114461183547974    0.1139852702617645    0.8937554955482483 Re
   0.7260472178459167    0.5754254460334778    0.5672336220741272 C
   0.4761268794536591    0.8246213197708130    0.0660410597920417 C
