Re10 Ir8
1.0
   3.9082982540130615    0.0000000000000000    0.0063175125978891
   0.0068619846790142    3.9108733535654605    0.0057985926978293
   0.0000000000000000    0.0000000000000000   18.1205501556396484
Re Ir
10 8
direct
   0.8871061801910399    0.8067637681961060    0.5719007849693298 Re
   0.8867138624191283    0.8063983917236328    0.0081529337912798 Re
   0.8873180747032164    0.8076955080032350    0.7911134362220764 Re
   0.8874631524085997    0.3087366521358490    0.6840314865112305 Re
   0.3860381245613098    0.3063616752624512    0.5730774998664856 Re
   0.8857764005661010    0.8052466511726381    0.2254399955272675 Re
   0.3857308924198150    0.3050061762332916    0.2248119115829468 Re
   0.3865651488304138    0.8069292902946473    0.9006178379058838 Re
   0.8861404657363890    0.3049848973751068    0.1144243776798248 Re
   0.3873218894004821    0.8084762692451478    0.6839410066604614 Re
   0.3851152360439300    0.8049257397651673    0.3256306946277618 Ir
   0.8866003155708312    0.3070095777511597    0.9000871777534485 Ir
   0.3866980969905853    0.3060021996498108    0.0071072345599532 Ir
   0.8853383660316466    0.3051090240478516    0.3258529305458069 Ir
   0.8868228197097777    0.3069606721401215    0.4718876481056213 Ir
   0.3872601389884948    0.3083821833133698    0.7921181917190552 Ir
   0.3857037723064422    0.8052378296852112    0.1156111210584641 Ir
   0.3872750401496887    0.8069395422935486    0.4720538556575775 Ir
