Ir4 Os12
1.0
   4.9812355041503897    0.0000000000000000    2.3086538314819336
   2.3050629614100293    4.7453183208465850    1.5431649684906008
   0.0000000000000000    0.0000000000000000    9.7783374786376953
Ir Os
4 12
direct
   0.2799043953418732    0.5922212004661560    0.2764579951763153 Ir
   0.1083839908242226    0.6743988990783691    0.7821514010429382 Ir
   0.9419998526573181    0.3816895186901093    0.5324838757514954 Ir
   0.4431836307048798    0.3823409378528595    0.5314442515373230 Ir
   0.2801426947116852    0.0920451581478119    0.2756941914558411 Os
   0.1127850711345673    0.3007675111293793    0.0257220268249512 Os
   0.6137641072273256    0.8005101084709167    0.0265210457146168 Os
   0.6090222001075745    0.6748679876327515    0.7824558615684509 Os
   0.4431486129760742    0.8822891712188722    0.5310936570167542 Os
   0.1121376603841781    0.8003476858139038    0.0266326423734427 Os
   0.9411817193031311    0.8832632899284363    0.5324018001556396 Os
   0.6140427589416504    0.3002677857875824    0.0250020287930965 Os
   0.6083693504333496    0.1726059317588806    0.7831029295921326 Os
   0.7813416719436646    0.5922361612319946    0.2744429409503936 Os
   0.7790186405181885    0.0912544205784798    0.2770444750785828 Os
   0.1093765124678612    0.1723532080650330    0.7840716838836670 Os
