Ir1 Os5
1.0
   4.3528075218200684    0.0000000000000000   -0.0037320845294748
  -0.0045504018498857    4.1365898853486751   -2.3973910808563237
   0.0000000000000000    0.0000000000000000    4.7801113128662109
Ir Os
1 5
direct
   0.4448051750659943    0.3138084113597870    0.4123755991458893 Ir
   0.9447920322418213    0.3142486512660980    0.7477400302886963 Os
   0.9448650479316711    0.9790094494819641    0.0777176842093468 Os
   0.9447367787361145    0.6493411660194398    0.4126955568790436 Os
   0.4448024332523346    0.6475118994712831    0.0791649669408798 Os
   0.4448162615299225    0.9805135130882264    0.7457969784736633 Os
