Os10 W2
1.0
   3.8199090957641602    0.0000000000000000   -0.6244251728057866
  -0.1046851002824294    3.8084515336681033   -0.6204985380172728
   0.0000000000000000    0.0000000000000000   12.0019655227661133
Os W
10 2
direct
   0.0501152761280537    0.8539360165596008    0.6452709436416626 Os
   0.1327388286590576    0.4371075928211212    0.8097952604293823 Os
   0.5499869585037231    0.3542256951332092    0.6442231535911560 Os
   0.4677744507789612    0.7714782357215881    0.4796380698680878 Os
   0.7149315476417542    0.5187129378318787    0.9743764996528625 Os
   0.6323925256729126    0.9362078905105591    0.8098256587982178 Os
   0.3841136693954468    0.1878316998481750    0.3138161003589630 Os
   0.2148199975490570    0.0182144679129124    0.9735658168792725 Os
   0.7985459566116333    0.1024941205978394    0.1409083902835846 Os
   0.9678220152854919    0.2719458043575287    0.4811672568321228 Os
   0.2965204119682312    0.6003805398941040    0.1377338021993637 W
   0.8863872885704041    0.6902618408203125    0.3169878125190735 W
