Re4 Ir7
1.0
   4.7185840606689453    0.0000000000000000   -0.6138145923614516
  -1.8454869687351454    5.5638581328404850   -1.8478934764862058
   0.0000000000000000    0.0000000000000000    6.1404695510864258
Re Ir
4 7
direct
   0.3002597689628601    0.5687644481658936    0.6214102506637573 Re
   0.3935086429119110    0.9316303730010986    0.4390460252761841 Re
   0.6619311571121216    0.0202605128288269    0.8902066946029664 Re
   0.1183551549911499    0.8384808301925660    0.9844300746917726 Re
   0.4807770848274231    0.2892267107963562    0.2564132809638977 Ir
   0.0298997499048710    0.4800231158733368    0.1690486818552017 Ir
   0.7542020678520203    0.3870422244071960    0.7089530825614929 Ir
   0.9364753961563110    0.1091366633772850    0.3478324711322784 Ir
   0.8484624028205872    0.7521590590476990    0.5331701040267944 Ir
   0.5701478123664856    0.6607623696327209    0.0693803578615189 Ir
   0.2116643637418747    0.2013207674026489    0.8042165040969850 Ir
