B8 Os2 W4
1.0
   3.0566344261169429    0.0000000000000000   -0.0006531011895278
  -1.5316523348244577    2.6440954129490160    0.0028852166142317
   0.0000000000000000    0.0000000000000000   17.3741168975830078
B Os W
8 2 4
direct
   0.5598592162132263    0.7076319456100464    0.1860848516225815 B
   0.5605191588401794    0.7063226699829102    0.9989074468612671 B
   0.8947867155075073    0.3750315904617310    0.4874314069747925 B
   0.2278043776750565    0.0420780107378960    0.4869325757026672 B
   0.2271304577589035    0.0407512970268726    0.1872280985116959 B
   0.2272447198629379    0.0391954667866230    0.9356876015663147 B
   0.8936818242073059    0.3727770745754242    0.9527828693389893 B
   0.2286594659090042    0.0407806560397148    0.6619865894317627 B
   0.8940489888191223    0.3745778501033783    0.7231777310371399 Os
   0.5614112019538879    0.7086982727050781    0.4053430259227753 Os
   0.8942727446556091    0.3739837408065796    0.2735899686813354 W
   0.5611539483070374    0.7060737013816832    0.8529947996139526 W
   0.8937299847602844    0.3745917975902557    0.0968300178647041 W
   0.5619712471961975    0.7078779339790344    0.5797320604324341 W
