Re2 Ir3 Os7
1.0
   4.7486095428466797    0.0000000000000000   -0.4282389581203455
  -2.4343879644303001    4.0809343552421140   -0.4258342683315276
   0.0000000000000000    0.0000000000000000    8.9682302474975586
Re Ir Os
2 3 7
direct
   0.2778577506542205    0.9852679967880248    0.1780895739793777 Re
   0.1162750050425529    0.8234668970108032    0.6866583824157715 Re
   0.7804024815559387    0.1543931066989899    0.6829066872596741 Ir
   0.4472935497760773    0.4881643950939179    0.6843914389610291 Ir
   0.9462913870811462    0.3197310566902161    0.1804741472005844 Ir
   0.1995758414268494    0.5713995099067688    0.9360802769660950 Os
   0.8627728223800659    0.9054356217384338    0.9366543889045715 Os
   0.3623542189598083    0.7369629144668579    0.4287259876728058 Os
   0.6133453845977783    0.6540079712867737    0.1793092638254166 Os
   0.5321158766746521    0.2405561953783035    0.9349435567855835 Os
   0.6956490874290466    0.4047176539897919    0.4280614554882050 Os
   0.0281289871782064    0.0690700560808182    0.4276706576347351 Os
