Re1 Ir4 Os6
1.0
   2.7437663078308110    0.0000000000000000   -0.0009558548917995
  -1.3689183926886133    7.1467141728517189    0.0045164572075015
   0.0000000000000000    0.0000000000000000    8.6778469085693359
Re Ir Os
1 4 6
direct
   0.4092498123645782    0.3237273097038269    0.2791066467761993 Re
   0.5161020159721375    0.5362228155136108    0.0223020929843187 Ir
   0.0739532113075256    0.6525572538375854    0.2787642180919647 Ir
   0.5171880722045898    0.5404947996139526    0.5358348488807678 Ir
   0.1844445019960403    0.8743917942047119    0.0244621019810438 Ir
   0.4040084481239319    0.3127524256706238    0.7781089544296265 Os
   0.8492189049720763    0.2039493769407273    0.5296315550804138 Os
   0.7420952916145325    0.9883481860160829    0.2807247936725616 Os
   0.1841052025556564    0.8733962774276735    0.5314362645149231 Os
   0.7410017848014832    0.9890515804290773    0.7765968441963196 Os
   0.8502957224845887    0.2061741203069687    0.0262358151376247 Os
