Re3 Ir8
1.0
   4.7553863525390616    0.0000000000000000    0.0141600845381613
  -0.8008360127602222    4.6667459394570994   -0.5097385048866275
   0.0000000000000000    0.0000000000000000    7.2485098838806152
Re Ir
3 8
direct
   0.8050785660743713    0.0675401762127876    0.1881048530340195 Re
   0.4428727328777313    0.8847826719284057    0.4583129286766052 Re
   0.0789656117558479    0.7024688720703125    0.7295582890510559 Re
   0.5331177711486816    0.4356343150138855    0.6394906044006348 Ir
   0.8967660665512085    0.6155866980552673    0.3688488900661469 Ir
   0.2618397176265717    0.7991502881050110    0.0962292030453682 Ir
   0.7185216546058655    0.5199263691902161    0.0033662728965282 Ir
   0.3507906198501587    0.3344506919384003    0.2779071629047394 Ir
   0.6222813725471497    0.9711446166038512    0.8214378356933594 Ir
   0.9879746437072754    0.1543575674295425    0.5491384863853455 Ir
   0.1665655821561813    0.2501356899738312    0.9143308401107788 Ir
