Ir11 Os4 Ru1
1.0
   4.3885898590087891    0.0000000000000000   -0.0040928791277118
  -0.0026426925588037    4.7580721191962425   -0.0077618681825698
   0.0000000000000000    0.0000000000000000   11.0183839797973633
Ir Os Ru
11 4 1
direct
   0.0243237577378750    0.6210198998451233    0.0694755315780640 Ir
   0.5244861841201782    0.7892554402351379    0.6903339028358459 Ir
   0.0244578365236521    0.6175264120101929    0.5665478706359863 Ir
   0.5243488550186157    0.2865198850631714    0.0687464699149132 Ir
   0.5244082212448120    0.2865396440029144    0.8153689503669739 Ir
   0.0243372227996588    0.6211956143379211    0.8161705732345581 Ir
   0.5245167016983032    0.2880977392196655    0.3168307840824127 Ir
   0.5242252945899963    0.7859072089195251    0.9433685541152954 Ir
   0.5242989063262939    0.7852409482002258    0.4413515329360962 Ir
   0.0245600193738937    0.1201710551977158    0.4407807886600494 Ir
   0.0243947841227055    0.1202408149838448    0.9415756464004517 Ir
   0.0244959052652121    0.1213210001587868    0.6910080909729004 Os
   0.5244436264038086    0.2853294014930725    0.5666599869728088 Os
   0.5243484377861023    0.7892615199089050    0.1927039772272110 Os
   0.0245375763624907    0.1173624917864800    0.1930001676082611 Os
   0.0244646053761244    0.6207422614097595    0.3152191638946533 Ru
