Ir1 Os5
1.0
   2.7062594890594482    0.0000000000000000   -0.5203415155410768
  -0.0024296640222805    4.3611791518466996   -0.0017621087608857
   0.0000000000000000    0.0000000000000000    7.2911357879638672
Ir Os
1 5
direct
   0.2081391364336014    0.5871078968048096    0.7249665856361389 Ir
   0.6522191166877747    0.0870016142725945    0.6135607957839966 Os
   0.8770141601562500    0.5870085358619690    0.0621536001563072 Os
   0.3202443718910217    0.0875504165887833    0.9485217332839966 Os
   0.9869170784950256    0.0871537849307060    0.2819386422634125 Os
   0.5415326356887817    0.5873208045959473    0.3908676207065582 Os
