B4 Ir2 Os6
1.0
   5.0752549171447745    0.0000000000000000   -1.8711723089218151
  -1.8890081633473703    4.7130075316123783   -1.8737981319427488
   0.0000000000000000    0.0000000000000000    6.1924576759338379
B Ir Os
4 2 6
direct
   0.7074748873710632    0.3383794128894806    0.0605584308505059 B
   0.4999367594718933    0.6312381029129028    0.6409595012664796 B
   0.9970190525054932    0.1282535344362259    0.6424397230148315 B
   0.2099659442901611    0.8410267233848572    0.0596414133906364 B
   0.9649506211280823    0.8075588941574097    0.2857580184936523 Ir
   0.0302808471024036    0.3742349743843079    0.4166799783706665 Ir
   0.8898732662200928    0.0192111246287823    0.9206182360649109 Os
   0.5304382443428040    0.8760505914688110    0.4183905422687531 Os
   0.8153463006019592    0.4469875097274781    0.7778583168983459 Os
   0.3206754326820374    0.9504536986351014    0.7813477516174316 Os
   0.3879181146621704    0.5198298692703247    0.9229756593704224 Os
   0.4610420167446136    0.3079581558704376    0.2820342183113098 Os
