Ir7 Os9
1.0
   4.3667573928833017    0.0000000000000000   -0.0042260820046072
  -0.0028794849657535    5.5199272274701165    0.0002919225662476
   0.0000000000000000    0.0000000000000000    9.5308370590209961
Ir Os
7 9
direct
   0.6082810163497925    0.5038782358169557    0.2312965989112854 Ir
   0.1080115810036659    0.0024765676353127    0.5657180547714233 Ir
   0.1079644411802292    0.7527239322662354    0.3117382228374481 Ir
   0.6081177592277527    0.7543701529502870    0.9801615476608276 Ir
   0.6083964705467224    0.0049248836003244    0.7294724583625793 Ir
   0.1083305850625038    0.2552090585231781    0.8152502775192261 Ir
   0.1079140305519104    0.2564467191696168    0.3128704726696014 Ir
   0.6083217263221741    0.5059374570846558    0.7296360135078430 Os
   0.1083086133003235    0.0047109425067902    0.0639226809144020 Os
   0.1081622242927551    0.7525417804718018    0.8141732215881348 Os
   0.1080935150384903    0.5039017796516418    0.0629872456192970 Os
   0.6082372069358826    0.0051572956144810    0.2311104834079742 Os
   0.6078811883926392    0.7544286251068115    0.4796967506408691 Os
   0.6081758737564087    0.2540550231933594    0.4800833463668823 Os
   0.1081790104508400    0.5048506259918213    0.5642153620719910 Os
   0.6082280874252319    0.2564038932323456    0.9814986586570740 Os
