Ir6 W4
1.0
   2.7691266536712646    0.0000000000000000   -0.0005655919667342
   0.0004830614549666    2.7684771593179782    0.0001038378686636
   0.0000000000000000    0.0000000000000000   19.6658115386962891
Ir W
6 4
direct
   0.9244538545608519    0.7993601560592651    0.3723350465297699 Ir
   0.9252392649650573    0.7996115684509277    0.1747952550649643 Ir
   0.9247363209724425    0.7998039126396179    0.9741693735122681 Ir
   0.9248841404914855    0.8001936078071594    0.7732049822807312 Ir
   0.4248963296413421    0.2993038296699524    0.2737845778465271 Ir
   0.9252560138702391    0.7998201847076417    0.5737770795822144 Ir
   0.4249820709228515    0.2998326718807220    0.4721791446208954 W
   0.4251757860183715    0.3001725077629089    0.8736426830291748 W
   0.4244980514049529    0.3002755045890808    0.0747324377298355 W
   0.4249571859836578    0.2994363307952881    0.6732011437416077 W
