Re1 Ir5
1.0
   2.7614216804504395    0.0000000000000000    0.0002316270110898
  -1.3823571844106783    4.8820079987930152   -1.2570112943649292
   0.0000000000000000    0.0000000000000000    6.5134315490722656
Re Ir
1 5
direct
   0.4230700433254242    0.8097375035285950    0.6604459285736084 Re
   0.1447333842515945    0.2518423199653625    0.6069905757904053 Ir
   0.0883487313985825    0.1389825046062469    0.9912604689598085 Ir
   0.7595706582069397    0.4816535115242004    0.3332363367080688 Ir
   0.4784618616104126    0.9188671112060547    0.2727329730987549 Ir
   0.8138106465339661    0.5912438035011292    0.9374706149101258 Ir
