Ir3 Os15
1.0
   5.3966445922851562    0.0000000000000000    1.0381734371185307
   1.1998076278962544    6.5789155161372168    1.0551691055297854
   0.0000000000000000    0.0000000000000000    7.2613868713378906
Ir Os
3 15
direct
   0.6355701684951782    0.2223481982946396    0.9159584045410157 Ir
   0.6544903516769409    0.8867705464363099    0.1755673885345459 Ir
   0.6737885475158693    0.5510199666023256    0.4347112476825715 Ir
   0.3192372620105743    0.8880083560943604    0.5104517936706543 Os
   0.8406690955162048    0.5504679679870607    0.7684938311576844 Os
   0.1358427256345749    0.2234586477279663    0.9154103398323060 Os
   0.8026778697967529    0.2243752479553223    0.2497368603944779 Os
   0.1546114534139633    0.8864356279373170    0.1755253821611405 Os
   0.3392616808414460    0.5515341162681580    0.7696947455406190 Os
   0.0087019167840481    0.5486690998077394    0.0997820943593979 Os
   0.1734175831079483    0.5500196814537049    0.4357841610908509 Os
   0.4875230789184570    0.8858209252357483    0.8410510420799256 Os
   0.4683531522750854    0.2229836583137512    0.5824426412582399 Os
   0.9898834228515625    0.8854380249977112    0.8405435681343080 Os
   0.9698954820632935    0.2222403585910797    0.5814656019210817 Os
   0.8217589855194092    0.8874657750129700    0.5101332068443298 Os
   0.3007735610008240    0.2247707843780518    0.2508026063442230 Os
   0.5068613290786743    0.5492380857467651    0.1011594682931900 Os
