Re1 Ir3
1.0
   2.7547695636749268    0.0000000000000000   -0.0010910457931456
  -0.0026064523394026    4.4025356206573161   -0.0052646971307699
   0.0000000000000000    0.0000000000000000    4.7987885475158691
Re Ir
1 3
direct
   0.9941528439521790    0.3725455999374390    0.5974641442298889 Re
   0.4939301311969757    0.8719671368598938    0.4252013266086578 Ir
   0.4946254193782806    0.3722295165061951    0.0931141227483749 Ir
   0.9936136603355408    0.8722232580184938    0.9255365133285522 Ir
