Re2 Os10
1.0
   3.8137989044189453    0.0000000000000000   -0.6243632435798648
  -0.1024618916317302    3.8116273442795396   -0.6258785128593441
   0.0000000000000000    0.0000000000000000   11.9381103515625000
Re Os
2 10
direct
   0.1391589641571045    0.7160874009132385    0.7627063393592834 Re
   0.3053292036056519    0.8825514316558838    0.0946337953209877 Re
   0.5555543899536133    0.6319333910942079    0.5945789813995361 Os
   0.9729751944541932    0.5499730110168458    0.4289208054542542 Os
   0.0548426993191242    0.1320228278636932    0.5938722491264343 Os
   0.2219066023826599    0.2993868887424469    0.9279844760894775 Os
   0.8053222894668580    0.3823228478431702    0.0959165841341019 Os
   0.6384266018867494    0.2154684662818909    0.7617548704147339 Os
   0.7218742370605470    0.7994137406349183    0.9283724427223206 Os
   0.4716543555259705    0.0489633940160275    0.4283498227596283 Os
   0.3898167908191681    0.4668433666229249    0.2635612189769745 Os
   0.8894563317298890    0.9670004248619080    0.2633548080921173 Os
