Ir3 Os13
1.0
   5.4919023513793945    0.0000000000000000    0.0001771797979011
  -2.7438641490945068    4.7568320083272804   -0.0000421366275984
   0.0000000000000000    0.0000000000000000    8.8121805191040039
Ir Os
3 13
direct
   0.1323526352643967    0.8848551511764526    0.4636393189430237 Ir
   0.6324627995491028    0.3847751021385193    0.9640034437179565 Ir
   0.6324892640113829    0.8843591213226317    0.4641448557376862 Ir
   0.4663726091384888    0.5517798066139221    0.7132635116577148 Os
   0.6332660913467408    0.8843626976013185    0.9639718532562256 Os
   0.1327298134565353    0.3842305839061737    0.4638547003269196 Os
   0.7993605136871338    0.7177601456642151    0.2137072086334229 Os
   0.4663651883602142    0.0514880567789078    0.7145448327064514 Os
   0.1325907707214355    0.3843183815479279    0.9638595581054688 Os
   0.1329869627952576    0.8844397068023682    0.9640607237815857 Os
   0.7990289330482483    0.2175394892692566    0.2144103646278381 Os
   0.9662339091300964    0.5512993931770325    0.7133890390396118 Os
   0.2993134558200836    0.7181767821311951    0.2134241014719009 Os
   0.2998235225677490    0.2171671539545059    0.2144424170255661 Os
   0.6324630975723267    0.3849916458129883    0.4642077088356018 Os
   0.9660875797271729    0.0519614964723587    0.7148846983909607 Os
