Ir9 Os3
1.0
   3.7485737800598145    0.0000000000000000   -0.9241651892662047
  -2.2322080319696775    5.5945381447928106   -0.9507858157157900
   0.0000000000000000    0.0000000000000000    8.1751947402954102
Ir Os
9 3
direct
   0.5304859280586243    0.0143213206902146    0.7342904806137085 Ir
   0.5331342816352844    0.2715319395065308    0.4818041920661926 Ir
   0.8692507147789000    0.4425529241561890    0.9825317263603210 Ir
   0.1994254142045974    0.3535310328006744    0.7324395775794983 Ir
   0.8643430471420287    0.6855302453041077    0.7317202091217041 Ir
   0.8643087744712828    0.1802622526884079    0.2337129563093185 Ir
   0.5343086719512939    0.5233132243156433    0.2334494292736053 Ir
   0.1960314661264419    0.0956113338470459    0.9843800067901611 Ir
   0.8617088794708251    0.9282159209251404    0.4820530116558075 Ir
   0.1974500417709350    0.6015998721122742    0.4806335866451263 Os
   0.1978780031204225    0.8502061367034913    0.2316463142633438 Os
   0.5339587330818176    0.7681560516357423    0.9869064092636108 Os
