Ir3 Os13
1.0
   5.4897351264953613    0.0000000000000000   -0.0011651207460094
  -2.7467854583918552    4.7515830787896185   -0.0006531978724541
   0.0000000000000000    0.0000000000000000    8.8228015899658203
Ir Os
3 13
direct
   0.4825718998908997    0.8009309172630310    0.6704518198966980 Ir
   0.1488253623247147    0.1348881721496582    0.1703753918409348 Ir
   0.6488889455795288    0.6341655850410461    0.1705570369958878 Ir
   0.3147459030151367    0.4673204421997070    0.9190638065338135 Os
   0.3156374096870423    0.9677650928497316    0.4202372729778290 Os
   0.8166512250900269    0.9689972996711731    0.4215312302112579 Os
   0.9829368591308594    0.8015255331993103    0.6706821918487549 Os
   0.8159190416336060    0.4674755632877350    0.9188654422760010 Os
   0.3158718347549438    0.9676895141601561    0.9203393459320068 Os
   0.4819183051586151    0.3006302118301392    0.6708619594573975 Os
   0.8160650730133057    0.9687163233757019    0.9191571474075317 Os
   0.8160175085067749    0.4674813747406005    0.4228543639183044 Os
   0.1486842185258865    0.6339016556739807    0.1704867780208588 Os
   0.3145996332168580    0.4668802320957184    0.4212491214275360 Os
   0.9829933047294617    0.3004909157752991    0.6706687211990356 Os
   0.6497308611869812    0.1341886818408966    0.1708164364099503 Os
