Ir6 Os6
1.0
   3.8647449016571045    0.0000000000000000   -0.0008667710353620
   0.0002747138204247    5.4700364997545536    0.0338659249246109
   0.0000000000000000    0.0000000000000000    8.2268686294555664
Ir Os
6 6
direct
   0.0213009491562843    0.2928525507450104    0.3541460633277893 Ir
   0.5211020112037659    0.0399697944521904    0.5214800238609314 Ir
   0.5213860869407654    0.5432974100112915    0.1918821483850479 Ir
   0.5213199257850647    0.0420673973858356    0.8632389903068542 Ir
   0.0213137418031693    0.7917086482048034    0.0253227800130844 Ir
   0.0213805362582207    0.2952316105365753    0.6957290172576904 Ir
   0.5212784409523010    0.5422556400299072    0.8552993535995483 Os
   0.5212490558624268    0.0427427068352699    0.1922140270471573 Os
   0.0213216356933117    0.2924948334693909    0.0250466223806143 Os
   0.0211492702364922    0.7880496382713318    0.6875948309898376 Os
   0.0212768167257309    0.7927145957946776    0.3619790971279144 Os
   0.5215012431144714    0.5470918416976929    0.5295276045799255 Os
