Re8 W2
1.0
   4.5794415473937988    0.0000000000000000    1.5837497711181634
   1.8252273261234966    4.5360579934709522    2.0946891307830815
   0.0000000000000000    0.0000000000000000    7.3524818420410156
Re W
8 2
direct
   0.9371114969253540    0.2351205646991730    0.7804216146469116 Re
   0.5368410944938660    0.2356817722320557    0.5808187723159790 Re
   0.1351062059402466    0.2355101704597473    0.3813446462154388 Re
   0.4091610610485077    0.7406605482101440    0.6795833706855774 Re
   0.6071447730064393    0.7326310873031616    0.2812416553497314 Re
   0.8044669032096862    0.7388262152671814    0.8801398277282714 Re
   0.0133528485894203    0.7300782799720764    0.4814992249011993 Re
   0.2001853734254837    0.7350566387176514    0.0809905529022217 Re
   0.3354119956493378    0.2368195354938507    0.9784023761749266 W
   0.7335841655731202    0.2345885038375854    0.1820271909236908 W
