Re6 W4
1.0
   4.2181916236877441    0.0000000000000000    1.4018665552139282
   0.4715185613931824    5.2660364910924695   -1.4045220613479619
   0.0000000000000000    0.0000000000000000    7.0629229545593262
Re W
6 4
direct
   0.8629261255264282    0.5023210048675536    0.9780488610267639 Re
   0.0655492767691612    0.2043779939413071    0.5726122260093689 Re
   0.4651707708835602    0.6003989577293396    0.7733775377273560 Re
   0.4594998061656952    0.1066575795412064    0.7846208214759827 Re
   0.2582722306251526    0.4082571864128113    0.1880396604537964 Re
   0.6613352298736572    0.8047900795936584    0.3806092441082001 Re
   0.6629395484924316    0.3029560148715973    0.3776444792747498 W
   0.0586809106171131    0.7114518284797668    0.5853809714317322 W
   0.8617086410522461    0.0055329538881779    0.9808245301246643 W
   0.2652184963226318    0.8996583819389343    0.1742755621671677 W
