Os4
1.0
   2.6509356498718262    0.0000000000000000   -0.7357843518257141
  -0.6135456780797666    4.1804179633217338   -2.2204878330230708
   0.0000000000000000    0.0000000000000000    5.1460452079772949
Os
4
direct
   0.0404078885912895    0.9394502639770508    0.9058954119682312 Os
   0.7904391288757324    0.3567214906215668    0.4057731628417969 Os
   0.5401346683502197    0.4402160346508026    0.9059192538261414 Os
   0.2899495661258698    0.8566715717315674    0.4059035778045654 Os
