Ir3 Os9
1.0
   3.7997379302978511    0.0000000000000000   -0.6239553689956677
  -0.1071186137391879    3.8049790917690722   -0.6279624700546260
   0.0000000000000000    0.0000000000000000   11.8775968551635742
Ir Os
3 9
direct
   0.4630638062953950    0.9933760166168214    0.5484618544578552 Ir
   0.0458301864564419    0.0759314820170403    0.7135062813758850 Ir
   0.8798517584800721    0.9102672934532167    0.3821645975112915 Ir
   0.3785571157932282    0.4092985987663270    0.3800365626811981 Os
   0.6293132305145264    0.1592012941837311    0.8803005218505859 Os
   0.2122044116258621    0.2420417666435242    0.0449756756424904 Os
   0.9628890752792360    0.4928113818168641    0.5479587912559509 Os
   0.5473011136054993    0.5777528882026673    0.7160267829895020 Os
   0.1299841850996017    0.6603831052780151    0.8820317387580872 Os
   0.7138640284538270    0.7446762323379518    0.0508434101939201 Os
   0.2967002093791962    0.8269097208976747    0.2155587971210480 Os
   0.7956629395484925    0.3255538642406464    0.2132286876440048 Os
