Re8 B2 Os5 C3
1.0
   2.8857820034027100    0.0000000000000000    0.0027829320169983
   1.4383942193261205    2.5026935187764647    0.0012513997498901
   0.0000000000000000    0.0000000000000000   31.5134525299072266
Re B Os C
8 2 5 3
direct
   0.5270301699638367    0.7728778123855591    0.6598432660102844 Re
   0.8595622181892395    0.1008767783641815    0.5933167338371277 Re
   0.8664395213127136    0.1055758297443390    0.8811112642288207 Re
   0.5277045369148256    0.7752464413642883    0.0408639609813690 Re
   0.1941263377666473    0.4406837522983552    0.2812377810478210 Re
   0.8648943305015564    0.1040751412510872    0.7254559993743895 Re
   0.1982269585132599    0.4385719299316406    0.9675602912902831 Re
   0.2005317211151124    0.4359842240810394    0.8111569881439208 Re
   0.5258965492248535    0.7744513154029846    0.4053562581539153 B
   0.8600560426712036    0.1064567789435387    0.2419132143259048 B
   0.1951275020837784    0.4395236968994141    0.5218868255615234 Os
   0.5295045971870422    0.7709147930145264    0.1967459022998810 Os
   0.1929979771375656    0.4423050880432129    0.3655566573143005 Os
   0.8588063120841980    0.1057834178209305    0.1216897815465927 Os
   0.8633905649185181    0.1120529323816300    0.4586510956287383 Os
   0.1956494003534318    0.4403798282146453    0.0828331038355827 C
   0.5330486297607422    0.7706192135810852    0.9236910343170165 C
   0.5304347872734070    0.7695716619491577    0.7672435045242308 C
