Ir6 Os6
1.0
   4.3764004707336426    0.0000000000000000   -0.0000502752263859
  -0.0025680977369962    4.7741086728379170   -0.0023961965925986
   0.0000000000000000    0.0000000000000000    8.2892351150512695
Ir Os
6 6
direct
   0.4059773385524750    0.5684473514556885    0.4178347885608673 Ir
   0.9061591625213623    0.7415459156036377    0.9180716276168823 Ir
   0.4060238897800446    0.0709293931722641    0.5875260829925537 Ir
   0.4057297110557556    0.0712796673178673    0.2485867142677307 Ir
   0.9056759476661682    0.2386101335287094    0.0875046923756599 Ir
   0.9058051705360413    0.2385041266679764    0.7486228942871094 Ir
   0.9058452248573303    0.2339768707752228    0.4182417094707489 Os
   0.4060441851615906    0.5753614306449889    0.7528865337371826 Os
   0.4061275124549866    0.5747244954109192    0.0827246457338333 Os
   0.9052926301956177    0.7347052097320557    0.2532039284706116 Os
   0.9061185121536255    0.7352726459503173    0.5823755860328674 Os
   0.4060155749320984    0.0759633034467697    0.9184895157814026 Os
