Ir3 Os3
1.0
   2.7118175029754639    0.0000000000000000   -0.5218959450721744
   0.0027905495101171    4.3893547724335544   -0.0005998386186557
   0.0000000000000000    0.0000000000000000    7.3014845848083496
Ir Os
3 3
direct
   0.5226428508758545    0.2673235833644867    0.1017915457487106 Ir
   0.1918115168809891    0.2673023939132690    0.4391846060752869 Ir
   0.9687823653221130    0.7672058939933778    0.9934730529785156 Ir
   0.8577463030815125    0.2672271132469177    0.7705408930778503 Os
   0.3002085685729980    0.7672220468521118    0.6555925011634827 Os
   0.6359347701072693    0.7671682238578796    0.3287200331687927 Os
