Re2 Ir4 Os10
1.0
   5.4988760948181152    0.0000000000000000   -0.0025960882194340
  -2.7462801644200994    4.7656965447160200   -0.0071256663650286
   0.0000000000000000    0.0000000000000000    8.8478584289550781
Re Ir Os
2 4 10
direct
   0.7655792832374573    0.5369602441787720    0.8851653933525085 Re
   0.2657331228256226    0.0381007231771946    0.3851532638072968 Re
   0.9336646795272827    0.3718437552452087    0.6347839236259460 Ir
   0.5988125205039978    0.7039496302604675    0.1356054395437241 Ir
   0.0991430804133415    0.7039792537689209    0.1349115669727325 Ir
   0.4330176413059235    0.3719278872013092    0.6357484459877014 Ir
   0.7665730714797974    0.0381847806274891    0.8855589628219604 Os
   0.5993950963020325    0.2045150846242905    0.1353475898504257 Os
   0.2661468684673309    0.5378321409225464    0.3852289021015167 Os
   0.7659024000167847    0.5375932455062866    0.3856228291988373 Os
   0.4327163398265839    0.8706143498420715    0.6366772651672363 Os
   0.0992638468742371    0.2046166956424713    0.1337115764617920 Os
   0.9318756461143494    0.8705207705497741    0.6361159086227417 Os
   0.2662515044212341    0.0376235358417034    0.8853307366371155 Os
   0.2661443054676056    0.5377854704856873    0.8847921490669250 Os
   0.7659994363784790    0.0373636558651924    0.3849543929100037 Os
