Re7 W8
1.0
   6.2951245307922363    0.0000000000000000    0.0114296488463885
   0.0249482182071665    6.2843332992725465    0.0169134791940444
   0.0000000000000000    0.0000000000000000    6.2782816886901855
Re W
7 8
direct
   0.8863345384597778    0.1526729166507721    0.2724539339542389 Re
   0.6292222142219543    0.9093394875526428    0.0164437312632799 Re
   0.3714051246643066    0.1517538726329803    0.2731800973415375 Re
   0.6293690204620361    0.9092392325401307    0.5181707739830017 Re
   0.3701488673686981    0.6668962836265564    0.2726368606090546 Re
   0.1289667487144470    0.4095719754695893    0.5185773372650146 Re
   0.6292612552642822    0.4093355834484101    0.5186377167701721 Re
   0.3743520677089691    0.6634823083877565    0.7611215114593506 W
   0.1290454715490341    0.4093978404998779    0.0176114719361067 W
   0.6287832856178284    0.4086258411407471    0.0186458155512810 W
   0.1300024539232254    0.9094972014427185    0.0185915566980839 W
   0.8840097784996033    0.6648052930831909    0.2737562954425812 W
   0.8827527761459351    0.6632407307624817    0.7630457878112793 W
   0.3737791776657104    0.1545191109180450    0.7607074379920959 W
   0.8844423890113831    0.1539635062217712    0.7602300047874451 W
