Re4 Ir14
1.0
   3.8757264614105225    0.0000000000000000    0.0011276277946308
   0.0008889046534993    3.8740805559797589   -0.0001996783394133
   0.0000000000000000    0.0000000000000000   18.7817649841308594
Re Ir
4 14
direct
   0.1124169602990150    0.2456582486629486    0.3034117519855499 Re
   0.1127051636576653    0.2456282079219818    0.0937673896551132 Re
   0.1137184202671051    0.2462908625602722    0.8823730945587158 Re
   0.1138464733958244    0.2457161098718643    0.5055563449859619 Re
   0.6127247810363770    0.2456508576869965    0.1991039961576462 Ir
   0.6136518120765686    0.7460401058197021    0.8870866298675537 Ir
   0.1128739714622498    0.7457496523857118    0.9899334907531738 Ir
   0.1137074679136276    0.7465788125991821    0.7847898006439209 Ir
   0.1127503290772438    0.7457524538040161    0.1988620758056641 Ir
   0.1139706671237946    0.7458832859992982    0.5914546251296997 Ir
   0.1127945259213448    0.7454373240470887    0.4048851430416107 Ir
   0.6136085391044617    0.2459114193916321    0.7846946120262146 Ir
   0.6122556924819946    0.7455047369003296    0.3028960824012756 Ir
   0.6127581000328064    0.2456900328397751    0.9900141954421997 Ir
   0.6129836440086365    0.7458046674728394    0.0946561619639397 Ir
   0.6129575967788696    0.2452139556407929    0.4049049317836761 Ir
   0.6138929128646851    0.7455592751502991    0.6854783296585083 Ir
   0.6138810515403748    0.2454497814178467    0.5917676687240601 Ir
