Re11 B3 Ir1 Os2 C1
1.0
   2.8211214542388916    0.0000000000000000   -0.0002711842535067
  -1.4014985230471451    2.4507392244645563    0.0009933686815204
   0.0000000000000000    0.0000000000000000   33.4387283325195312
Re B Ir Os C
11 3 1 2 1
direct
   0.3780495822429657    0.4026480317115784    0.6339601874351501 Re
   0.0425445064902306    0.7317653298377991    0.7625203728675842 Re
   0.0406815111637115    0.7380988001823425    0.1957146078348160 Re
   0.7105533480644226    0.0695504471659660    0.5705819129943848 Re
   0.3790164291858673    0.3991915881633759    0.9995590448379517 Re
   0.0398458130657673    0.7348601222038269    0.4802367091178894 Re
   0.7136397957801819    0.0637042596936226    0.9151211977005005 Re
   0.7077087163925171    0.0682945325970650    0.1286534965038300 Re
   0.7088171839714050    0.0716245844960213    0.6951327919960022 Re
   0.3716919422149658    0.4027071297168732    0.3495466411113739 Re
   0.0461160987615585    0.7330607175827026    0.8500313758850098 Re
   0.7055982947349548    0.0689011961221695    0.3070710003376007 B
   0.7099564671516418    0.0670309364795685    0.8064055442810059 B
   0.3742886483669281    0.4018515348434448    0.5252419710159302 B
   0.3712918162345886    0.4017528295516968    0.2627495229244232 Ir
   0.7073102593421936    0.0672680959105492    0.4161911308765411 Os
   0.0426078923046589    0.7312178611755371    0.0660656318068504 Os
   0.0446448326110840    0.7307325601577759    0.9570301771163940 C
