Ir6 Os5
1.0
   3.8122892379760742    0.0000000000000000   -0.6370882987976076
  -0.1066040632952768    3.7951279552495025   -0.6328851580619809
   0.0000000000000000    0.0000000000000000   11.6774988174438477
Ir Os
6 5
direct
   0.6620358824729919    0.3097334504127503    0.0581233240664005 Ir
   0.8299033641815186    0.4771655201911926    0.3932557106018066 Ir
   0.5769221186637878    0.7244101166725160    0.8862983584403991 Ir
   0.9917167425155640    0.6394210457801819    0.7164096832275391 Ir
   0.4119789004325867    0.5592871308326722    0.5569841265678406 Ir
   0.7462574243545532    0.8939300775527955    0.2270630300045013 Ir
   0.3293318450450897    0.9772957563400270    0.3923220932483673 Os
   0.4943539202213287    0.1414148956537247    0.7212859392166138 Os
   0.2483608126640320    0.3958140015602112    0.2309185117483139 Os
   0.1592215299606323    0.8071345090866089    0.0528752766549587 Os
   0.0747661665081978    0.2222646176815033    0.8815950155258178 Os
