Ir3 Os7
1.0
   2.7273781299591064    0.0000000000000000   -0.0001789400703280
   0.0016803837396632    2.7271775790768169    0.0005415056366471
   0.0000000000000000    0.0000000000000000   19.2917060852050781
Ir Os
3 7
direct
   0.5647181272506714    0.2982996106147766    0.3776944875717163 Ir
   0.0633035823702812    0.7999293208122253    0.6783135533332825 Ir
   0.0645844414830208    0.7990105748176576    0.2749724984169006 Ir
   0.5629785656929016    0.2996999323368073    0.7796867489814758 Os
   0.5631734132766724    0.2998492717742920    0.5770170688629150 Os
   0.0636475607752800    0.7997388839721679    0.4787361025810242 Os
   0.0632601156830788    0.7993133068084718    0.8779075741767883 Os
   0.5642830729484558    0.2988890707492828    0.9773925542831421 Os
   0.5642156600952148    0.2984678745269775    0.1769324541091919 Os
   0.0641559511423111    0.7987164855003358    0.0772255659103394 Os
