Os6 W2
1.0
   2.7821679115295410    0.0000000000000000    0.0005782938678748
  -0.0001533834029379    4.4187650653920905   -0.0004632133059207
   0.0000000000000000    0.0000000000000000    9.6848144531250000
Os W
6 2
direct
   0.5873483419418335    0.4970872104167938    0.5134942531585693 Os
   0.0873017981648445    0.4973062574863434    0.7587535977363586 Os
   0.0874493867158890    0.9969792962074280    0.5899771451950073 Os
   0.5872834920883179    0.4973050057888030    0.0039618406444788 Os
   0.5873519778251648    0.9969358444213867    0.3449635505676270 Os
   0.5873383283615112    0.9972137212753296    0.8357005119323730 Os
   0.0873480960726738    0.9972123503684996    0.0907897651195526 W
   0.0876048356294632    0.4969933032989502    0.2584589719772339 W
