Re2 Os10
1.0
   3.8149642944335938    0.0000000000000000   -0.6244620680809019
  -0.1022827781390934    3.8128490042213410   -0.6249991059303290
   0.0000000000000000    0.0000000000000000   11.9296073913574219
Re Os
2 10
direct
   0.6375867128372191    0.9580966830253602    0.7234045863151550 Re
   0.2217878103256225    0.0424855314195156    0.8913326859474182 Re
   0.0546327941119671    0.8749787211418152    0.5564203262329102 Os
   0.8877346515655516    0.7088639140129090    0.2238046228885651 Os
   0.1381020396947861    0.4582130014896393    0.7229912281036377 Os
   0.4714249074459075    0.7916236519813539    0.3905872106552124 Os
   0.8051134943962096    0.1249297261238098    0.0579982325434685 Os
   0.5544958710670471    0.3744091093540192    0.5564594268798828 Os
   0.7216543555259703    0.5422792434692384    0.8915416598320007 Os
   0.3049823343753814    0.6254400014877319    0.0579964667558670 Os
   0.9715509414672850    0.2916927039623260    0.3905351459980011 Os
   0.3880327045917510    0.2084057629108429    0.2235129177570343 Os
