Re4 Os12
1.0
   5.5301666259765625    0.0000000000000000    0.0002476352383377
  -2.7562033587203985    4.7912464153589314    0.0086632901802662
   0.0000000000000000    0.0000000000000000    8.8427429199218750
Re Os
4 12
direct
   0.7195669412612915    0.4801848828792572    0.2290694117546082 Re
   0.3845982551574707    0.3129124939441681    0.4816063642501831 Re
   0.8865213394165039    0.8147176504135132    0.4810765385627747 Re
   0.3864957094192505    0.8136623501777649    0.9809540510177612 Re
   0.8858754634857178    0.3135179877281189    0.4808245301246643 Os
   0.3854808807373047    0.3135053515434265    0.9798701405525208 Os
   0.3860844969749451    0.8138815760612488    0.4801193475723267 Os
   0.2197007983922958    0.9798831343650818    0.2308467775583267 Os
   0.2198704481124878    0.4819364547729492    0.2315732687711716 Os
   0.0533782914280891    0.6469892859458923    0.7298078536987305 Os
   0.8859823346138000    0.3130310475826264    0.9806386828422546 Os
   0.5525276660919189    0.1464319825172424    0.7296803593635559 Os
   0.0528105758130550    0.1477807015180588    0.7319334745407104 Os
   0.5522899627685547    0.6473354101181030    0.7300722002983093 Os
   0.7180443406105043    0.9796473979949952    0.2316133081912994 Os
   0.8860088586807251    0.8136621117591859    0.9800463914871216 Os
