Re2 Os5 W3
1.0
   3.7774224281311031    0.0000000000000000   -1.0402920246124272
  -0.2928394613391563    5.4488703198031514   -1.0702068805694587
   0.0000000000000000    0.0000000000000000    7.3822011947631836
Re Os W
2 5 3
direct
   0.0183985084295273    0.7437420487403869    0.7959679961204529 Re
   0.4159173965454102    0.9435232877731322    0.5912508368492126 Re
   0.4176251590251923    0.4416083991527557    0.5944977998733521 Os
   0.2173870354890824    0.3410227000713348    0.1940911859273911 Os
   0.8168878555297852    0.1412505805492401    0.3936392962932587 Os
   0.2167354375123978    0.8410371541976929    0.1925315558910370 Os
   0.6167504191398621    0.5395590066909790    0.9922187924385071 Os
   0.8158019185066223    0.6384389400482177    0.3911920487880707 W
   0.0126242283731699    0.2487341016530990    0.7844260931015015 W
   0.6235762834548950    0.0392410829663277    0.0068368772044778 W
