Os12 W4
1.0
   5.5476980209350586    0.0000000000000000   -0.0018070157384503
  -2.7764016807157650    4.7991059115323305   -0.0030802143737669
   0.0000000000000000    0.0000000000000000    8.8703889846801758
Os W
12 4
direct
   0.1932675391435623    0.3507480323314667    0.2614708542823792 Os
   0.3614078164100647    0.1846966445446014    0.0115553401410580 Os
   0.5273588299751282    0.5167389512062073    0.5115468502044678 Os
   0.1936264783143997    0.8511279821395874    0.7610070705413818 Os
   0.5276280045509338    0.0188289210200310    0.5109095573425293 Os
   0.6929978132247925    0.8503249287605286    0.7608212232589722 Os
   0.0246602743864059    0.5162960290908813    0.5118566155433655 Os
   0.6936956644058228    0.8508115410804749    0.2612121403217316 Os
   0.1929362416267395    0.3500967323780060    0.7614024281501770 Os
   0.1931365132331848    0.8502972126007081    0.2615416049957275 Os
   0.8591278791427612    0.6820231080055238    0.0107652647420764 Os
   0.8594116568565369    0.1844702064990997    0.0116481073200703 Os
   0.6927407383918762    0.3501276969909668    0.7617242932319641 W
   0.3604943156242371    0.6839444041252136    0.0110306395217776 W
   0.0264797490090132    0.0171576347202063    0.5110861659049988 W
   0.6934119462966919    0.3507385253906250    0.2606036961078644 W
