Os5 Ru1
1.0
   2.7044622898101807    0.0000000000000000   -0.5200381278991697
   0.0006327137557262    4.3477844731575459    0.0006015519611533
   0.0000000000000000    0.0000000000000000    7.2729020118713379
Os Ru
5 1
direct
   0.0242854822427034    0.6982448697090149    0.3677129149436951 Os
   0.6908407211303711    0.6986422538757325    0.7008561491966248 Os
   0.1359315365552902    0.1986552923917770    0.5906627178192139 Os
   0.8025114536285400    0.1984614282846451    0.9234368205070496 Os
   0.4682036936283112    0.1985104233026505    0.2556173801422119 Os
   0.3572815954685211    0.6986445188522339    0.0327641554176807 Ru
