Re1 Os5
1.0
   2.7068226337432861    0.0000000000000000   -0.5207181572914122
  -0.0031694067728037    4.3732970197195629   -0.0036912632640447
   0.0000000000000000    0.0000000000000000    7.3047280311584473
Re Os
1 5
direct
   0.7269520759582520    0.5421360135078430    0.9612187147140504 Re
   0.1702684760093689    0.0419332385063171    0.8486315011978151 Os
   0.3922961354255676    0.5418657064437866    0.2930800616741180 Os
   0.8366420269012450    0.0414753854274750    0.1818699836730957 Os
   0.0588241107761860    0.5415863990783691    0.6251791715621948 Os
   0.5037407875061035    0.0420104376971722    0.5153934359550476 Os
