Re8 Ir4 W1
1.0
   2.7549705505371094    0.0000000000000000   -0.2360976487398154
  -0.0492745602150451    4.3794768752046558   -0.5991520285606379
   0.0000000000000000    0.0000000000000000   16.2423362731933594
Re Ir W
8 4 1
direct
   0.5229352116584778    0.1006597578525543    0.3355242013931274 Re
   0.8275108933448792    0.4039181172847748    0.9426148533821106 Re
   0.3544657230377197    0.9315322637557985    0.9973999857902527 Re
   0.0497608259320259    0.6259893178939819    0.3866804242134094 Re
   0.7782449722290039    0.8543872833251953    0.8429500460624695 Re
   0.1002156510949135    0.1762166470289230    0.4871863424777985 Re
   0.6270128488540649    0.7024108767509460    0.5407857894897461 Re
   0.6772843599319458    0.2524969875812531    0.6400118470191956 Re
   0.2025000154972076    0.7783005237579346    0.6903468966484070 Ir
   0.4762645661830902    0.5547838211059570    0.2440943717956543 Ir
   0.2537037134170532    0.3295855820178986    0.7923497557640076 Ir
   0.4003042876720428    0.4768836200237274    0.0876779928803444 Ir
   0.9376196861267090    0.0156629849225283    0.1659188866615295 W
