Re4 Os6
1.0
   2.7581100463867188    0.0000000000000000   -0.0046406998299064
  -0.0053022573919453    4.7522391303517484   -0.7127823829650879
   0.0000000000000000    0.0000000000000000   11.1427383422851562
Re Os
4 6
direct
   0.2856634259223938    0.3655975759029388    0.2089144140481949 Re
   0.7861040830612183    0.1288889646530151    0.0045948596671224 Re
   0.2858459949493408    0.7612339854240417    0.4064805209636689 Re
   0.7862524390220642    0.8636015653610228    0.2060825824737549 Re
   0.2859837710857391    0.2316445410251617    0.8094725012779237 Os
   0.7858734130859375    0.7312745451927185    0.8091625571250917 Os
   0.7852811813354492    0.2630018591880798    0.4050611853599549 Os
   0.2861005663871765    0.6298124194145203    0.0065741646103561 Os
   0.7855709791183472    0.9963711500167847    0.6103505492210388 Os
   0.2855023443698883    0.4975646436214447    0.6071241497993469 Os
