Re4 B4 Ir5 Os5
1.0
   2.7992913722991943    0.0000000000000000   -0.0007082371157594
  -0.0006458216246691    8.5120715849974165   -3.6919960975646973
   0.0000000000000000    0.0000000000000000    9.7762289047241211
Re B Ir Os
4 4 5 5
direct
   0.1788432002067566    0.5594966411590576    0.1098375692963600 Re
   0.1783792972564697    0.2234635949134827    0.9143739938735962 Re
   0.1787325292825699    0.3868156075477601    0.5162464380264282 Re
   0.1785441488027573    0.0633988082408905    0.1061248034238815 Re
   0.6785846948623657    0.4134047329425812    0.9154403209686279 B
   0.1787695437669754    0.5291855931282043    0.3908377289772034 B
   0.6787670254707336    0.9930419921875000    0.4727539420127869 B
   0.1789162606000900    0.7577190399169923    0.8258597254753113 B
   0.6784838438034058    0.9522587060928346    0.8536443710327151 Ir
   0.6786839365959167    0.6593585014343262    0.6315541267395020 Ir
   0.1783204674720764    0.9523071050643921    0.6112220287322998 Ir
   0.6785159111022949    0.3594673573970795    0.2200057059526444 Ir
   0.6792305707931519    0.1460308432579041    0.3556061983108521 Ir
   0.6792052388191223    0.7664408683776857    0.0154477022588253 Os
   0.1793365925550461    0.8773203492164613    0.2684470713138581 Os
   0.6786732673645020    0.2379963546991349    0.6668717861175537 Os
   0.1790869981050491    0.5149312019348145    0.8058956265449524 Os
   0.6788827180862427    0.6958630084991455    0.3728424906730652 Os
