Re7 Os3
1.0
   3.7690064907073975    0.0000000000000000   -1.0382840633392334
  -0.2872611669015055    5.4378877312289857   -1.0423612594604490
   0.0000000000000000    0.0000000000000000    7.3276343345642090
Re Os
7 3
direct
   0.7194300889968872    0.8887791633605957    0.1349851340055466 Re
   0.1190362051129341    0.0913469940423965    0.9337605237960815 Re
   0.9189018011093140    0.4914668202400208    0.5330921411514282 Re
   0.1203515455126762    0.5915685296058655    0.9369426369667053 Re
   0.5209037661552429    0.2913141846656799    0.7377229928970337 Re
   0.3183354437351227    0.1937887966632843    0.3334096372127533 Re
   0.9202963113784790    0.9885095953941344    0.5364184975624084 Re
   0.7196860909461975    0.3915215730667114    0.1355026662349701 Os
   0.3196897804737091    0.6915476918220520    0.3353289067745209 Os
   0.5196928381919861    0.7911134362220765    0.7350769042968750 Os
