Ir4 Os7
1.0
   4.7243304252624512    0.0000000000000000   -0.0069482130929841
   0.7823944989181155    4.6343556135637334    0.5153709650039666
   0.0000000000000000    0.0000000000000000    7.2239856719970703
Ir Os
4 7
direct
   0.6416969299316406    0.4291326701641082    0.2619952857494354 Ir
   0.3691776692867279    0.0659408494830132    0.7179000377655030 Ir
   0.1881194263696671    0.1543799936771393    0.3539743721485138 Ir
   0.0945769250392914    0.7050208449363708    0.1701842695474625 Ir
   0.2765773534774780    0.6113787889480591    0.5358585715293884 Os
   0.4621953368186951    0.5202649831771851    0.8980537056922914 Os
   0.7336810827255249    0.8813357949256896    0.4454084038734437 Os
   0.5506196618080139    0.9778282046318053    0.0781214982271194 Os
   0.9152114391326904    0.7917249202728271    0.8069609999656678 Os
   0.0044163148850203    0.2480145245790482    0.9878576397895814 Os
   0.8208329677581787    0.3426529765129089    0.6253159642219543 Os
