Ir7 Os5
1.0
   4.3776435852050781    0.0000000000000000    0.0030766706913706
   0.0021227790090190    4.7809944208595612   -0.0015715309418734
   0.0000000000000000    0.0000000000000000    8.2846622467041016
Ir Os
7 5
direct
   0.5058972239494324    0.8504592776298523    0.8466926813125610 Ir
   0.5058809518814087    0.3475762903690339    0.3529989719390869 Ir
   0.0060627246275544    0.6861538290977479    0.3467983603477478 Ir
   0.0060468604788184    0.6824877858161927    0.6855398416519165 Ir
   0.5057790875434875    0.8535267710685730    0.1846118122339249 Ir
   0.0061354637145996    0.1793858259916306    0.5171831846237183 Ir
   0.5058053731918335    0.3538160622119904    0.0146014327183366 Ir
   0.0058439583517611    0.6873469352722168    0.0168232582509518 Os
   0.0059681795537472    0.1865381300449371    0.1803252846002579 Os
   0.5059332847595215    0.8468955755233766    0.5177387595176697 Os
   0.0058972090482712    0.1868953257799149    0.8520990610122681 Os
   0.5059329271316528    0.3464302718639374    0.6821606159210205 Os
