Re3 Os9
1.0
   3.8209776878356934    0.0000000000000000   -0.6266545057296757
  -0.1015915784450592    3.8174860958829888   -0.6260132193565371
   0.0000000000000000    0.0000000000000000   11.9412622451782227
Re Os
3 9
direct
   0.5432499647140503    0.4415607154369355    0.1525996625423431 Re
   0.8767845630645752    0.7758065462112428    0.8194816112518311 Re
   0.1272103488445282    0.5261867046356201    0.3204609453678131 Re
   0.6278444528579712    0.0265399310737848    0.3215017020702362 Os
   0.2102487832307816    0.1090731173753739    0.4871797859668732 Os
   0.3769932985305786    0.2757706344127655    0.8198975324630737 Os
   0.7106753587722778    0.6092429757118225    0.4873273372650146 Os
   0.9600803852081299    0.3590155243873596    0.9867389202117920 Os
   0.4607861340045929    0.8593510389328004    0.9868537187576294 Os
   0.0425710082054138    0.9421550035476686    0.1518612802028656 Os
   0.7938516139984131    0.1922834366559983    0.6529908180236816 Os
   0.2928651869297028    0.6917010545730591    0.6524587869644165 Os
