Re1 B2 Os4
1.0
   2.8106710910797124    0.0000000000000000    0.0014506787993015
  -1.4053002356226043    4.2388412529593360   -2.1775307655334477
   0.0000000000000000    0.0000000000000000    7.0794820785522461
Re B Os
1 2 4
direct
   0.4095777571201324    0.5401327610015869    0.1390311866998672 Re
   0.1887352317571640    0.0976585969328880    0.8177142739295959 B
   0.8434757590293884    0.4073290824890137    0.3432419896125793 B
   0.8573894500732422    0.4348806738853454    0.7673168182373047 Os
   0.6256685256958008    0.9728168845176697    0.0200686734169722 Os
   0.5177074670791626    0.7554523944854736    0.5794140696525574 Os
   0.1781837493181229    0.0773770362138748    0.3919420838356018 Os
