Ir4 Os4
1.0
   2.7495446205139160    0.0000000000000000   -0.0005370095022954
  -0.0019842283744633    4.3834748545584654   -0.0022178981453177
   0.0000000000000000    0.0000000000000000    9.5522108078002930
Ir Os
4 4
direct
   0.1402820795774460    0.2449451088905335    0.5253481864929199 Ir
   0.6401058435440063    0.2445862591266632    0.2698512971401215 Ir
   0.1404692083597183    0.7447229027748108    0.6933960914611816 Ir
   0.6400711536407471    0.7447162866592408    0.4371320009231567 Ir
   0.1407222300767899    0.7445669770240784    0.1873610466718674 Os
   0.6405478715896606    0.7445279955863954    0.9405036568641661 Os
   0.1402248591184616    0.2448613494634629    0.0213226750493050 Os
   0.6406005024909973    0.2445903420448304    0.7762928009033203 Os
