Re7 W3
1.0
   3.9355576038360600    0.0000000000000000   -0.0006738786469215
   0.0001267723462237    3.8518424013256913   -0.7562295794486997
   0.0000000000000000    0.0000000000000000   10.1867189407348633
Re W
7 3
direct
   0.1059189140796662    0.7232668995857239    0.0998420864343643 Re
   0.1059237122535706    0.3224161863327026    0.2990979552268982 Re
   0.6056603193283081    0.6205691695213318    0.8955312967300415 Re
   0.6059255599975586    0.8238828182220459    0.3000330924987793 Re
   0.1056880727410317    0.9234559535980225    0.4994605779647827 Re
   0.1058261692523956    0.5216786861419678    0.6973451972007751 Re
   0.6058689951896667    0.0232938267290592    0.6985567212104797 Re
   0.1056600809097290    0.1210946366190910    0.8947587013244629 W
   0.6057491898536682    0.2251034975051880    0.1034271270036697 W
   0.6057024002075195    0.4221196770668030    0.4967780411243439 W
