Ir4 Os8
1.0
   3.8081703186035156    0.0000000000000000   -0.6268856525421143
  -0.1036025250411282    3.8064662313966160   -0.6271798610687258
   0.0000000000000000    0.0000000000000000   11.8706016540527344
Ir Os
4 8
direct
   0.4063978195190429    0.3858878314495087    0.8940050601959229 Ir
   0.5714773535728455    0.5510714650154114    0.2249650508165359 Ir
   0.2409988045692444    0.2207186669111252    0.5636665821075439 Ir
   0.1560804098844528    0.6353012323379517    0.3937646150588989 Ir
   0.3224665522575378    0.8020958304405212    0.7265380024909973 Os
   0.4894113242626190    0.9687378406524658    0.0596728548407555 Os
   0.7386385202407836    0.7183907032012939    0.5591726899147034 Os
   0.9900070428848265    0.4695923924446107    0.0620646253228188 Os
   0.0739179998636246    0.0532978698611259    0.2295368462800980 Os
   0.9060819149017333    0.8852922320365906    0.8934223651885986 Os
   0.8235878348350524    0.3030256628990174    0.7292228937149048 Os
   0.6559938192367554    0.1356740891933441    0.3938367664813995 Os
