Os7 W3
1.0
   2.7487070560455322    0.0000000000000000    0.0005015447968617
  -1.3668836502720454    6.2055141916255740   -2.1529693603515621
   0.0000000000000000    0.0000000000000000    8.8392343521118164
Os W
7 3
direct
   0.4922870993614197    0.7950562238693238    0.8606455326080323 Os
   0.9028282165527344    0.6137074232101440    0.0645802393555641 Os
   0.4901524484157563    0.7890372872352601    0.3597963154315950 Os
   0.0764878615736961    0.9619948267936707    0.6554535627365112 Os
   0.1804271638393402    0.1702028810977936    0.4396704137325287 Os
   0.2023701965808868    0.2147707939147949    0.9752306938171387 Os
   0.7998804450035095    0.4083005189895630    0.2788063883781433 Os
   0.7749062180519104    0.3594903051853180    0.7495501637458801 W
   0.5962726473808289    0.0016091910656542    0.1583360433578491 W
   0.3841158747673035    0.5771077275276185    0.5606760978698730 W
