Re3 Os7
1.0
   4.5406494140625000    0.0000000000000000    1.5715832710266102
   2.3867216219518634    4.6326675976012890    0.4921382367610933
   0.0000000000000000    0.0000000000000000    7.0043811798095703
Re Os
3 7
direct
   0.4032779335975647    0.0104211755096912    0.8580589890480040 Re
   0.9676337838172913    0.6090493202209472    0.5592492818832397 Re
   0.5243791937828064    0.6990140676498413    0.3629631102085113 Re
   0.7036375999450684    0.1155652105808258    0.0591252781450749 Os
   0.1575397402048111    0.6960123777389525    0.1555527746677399 Os
   0.9995415210723877    0.0806150957942009    0.6591476798057556 Os
   0.0991017520427704    0.2145763039588928    0.2649301290512085 Os
   0.8351981043815613    0.5304881930351257    0.9646702408790587 Os
   0.5683088898658752    0.1430442631244659    0.4567658603191375 Os
   0.4156389534473419    0.5302495360374451    0.7604656219482421 Os
