Ir3 Os13
1.0
   5.4948530197143555    0.0000000000000000    0.0015679197385907
  -2.7476621152545690    4.7592235209007683    0.0041354536078869
   0.0000000000000000    0.0000000000000000    8.8264894485473633
Ir Os
3 13
direct
   0.2508401274681091    0.7962045073509216    0.1627711504697800 Ir
   0.5841974616050720    0.4634071886539459    0.4109038412570953 Ir
   0.4165308177471161    0.1284504979848862    0.9117715358734131 Ir
   0.7522137165069580    0.2967720925807953    0.1615246683359146 Os
   0.2495712488889694    0.2970552742481232    0.1617553532123566 Os
   0.7514151930809021    0.7973560094833374    0.6628673672676086 Os
   0.5852376222610473    0.9632073044776915    0.4123479723930359 Os
   0.2503615617752075    0.7956295609474182    0.6601038575172424 Os
   0.9176896810531616    0.1307824552059174    0.9119979739189148 Os
   0.0838505700230598    0.4621916711330414    0.4124747812747955 Os
   0.2494105845689774    0.2964114248752594    0.6616469621658325 Os
   0.7513051033020020    0.7973706722259521    0.1606711000204086 Os
   0.4167778491973877    0.6297890543937683    0.9109679460525513 Os
   0.9182390570640564    0.6298422813415527    0.9113447070121765 Os
   0.7519592642784119    0.2966390252113342    0.6619784235954285 Os
   0.0835452228784561    0.9634871482849121    0.4121873080730438 Os
