Re5 Os11
1.0
   5.5253257751464844    0.0000000000000000    0.0007302236626851
  -2.7610613383404532    4.7834742361253797    0.0017366434913133
   0.0000000000000000    0.0000000000000000    8.8515014648437500
Re Os
5 11
direct
   0.6019815206527710    0.3518212139606476    0.3846050798892975 Re
   0.1029042154550553    0.3544039726257325    0.3866833150386810 Re
   0.7698796987533569    0.6868406534194947    0.6361498236656189 Re
   0.6021049022674561    0.3521091938018799    0.8877480030059814 Re
   0.1028270944952965    0.3538867831230164    0.8859401345252991 Re
   0.1038287729024887    0.8547173738479614    0.3853483498096466 Os
   0.9367688298225402    0.0205957405269146    0.1366387009620667 Os
   0.6037769317626953    0.8541000485420228    0.8861758708953857 Os
   0.6028856039047241    0.8538845181465150    0.3859631419181824 Os
   0.7704750299453735    0.1884580850601196    0.6361417174339294 Os
   0.4357381463050842    0.5199689269065857    0.1365503221750259 Os
   0.2697393596172333    0.6871810555458070    0.6360114812850952 Os
   0.2707288861274719    0.1889390647411346    0.6355645656585693 Os
   0.9362301826477050    0.5201514959335327    0.1360588520765305 Os
   0.1040017232298851    0.8547953367233276    0.8872864246368408 Os
   0.4365141987800598    0.0204000044614077    0.1362716257572174 Os
