Mo2 Os8
1.0
   4.8012156486511230    0.0000000000000000    1.2480323314666752
   1.7041124389420332    4.4932182310110003    1.2464842796325688
   0.0000000000000000    0.0000000000000000    6.7995839118957520
Mo Os
2 8
direct
   0.3225167691707611    0.7828159928321838    0.5236304402351379 Mo
   0.4282805025577545    0.8879791498184204    0.0891855955123901 Mo
   0.2739278078079224    0.2385252416133881    0.7055441141128540 Os
   0.9302584528923035    0.3900942206382751    0.0907322317361832 Os
   0.9721724390983582    0.9381032586097717    0.9075624942779542 Os
   0.8216109871864320    0.2813471853733063    0.5216590762138367 Os
   0.7793311476707458    0.7329326272010803    0.7056297659873962 Os
   0.4782979786396027    0.4313616752624512    0.9077528715133668 Os
   0.3753879070281983    0.3358900547027588    0.3063888251781464 Os
   0.8753829002380371    0.8357437252998352    0.3062604963779449 Os
