Re5 B2
1.0
   4.5912733078002930    0.0000000000000000   -0.0244214106351145
  -2.2999771724678335    3.7523143742129879   -0.9229297041893009
   0.0000000000000000    0.0000000000000000    5.1002635955810547
Re B
5 2
direct
   0.4810806512832642    0.7811666131019592    0.0117029957473278 Re
   0.3904857933521271    0.6007074713706970    0.4966669976711273 Re
   0.1218443587422371    0.0613819882273674    0.8661441206932068 Re
   0.8516624569892883    0.5241491198539734    0.2371214181184769 Re
   0.7618992328643799    0.3426559567451477    0.7205714583396912 Re
   0.3235652744770050    0.0639297142624855    0.3663457036018372 B
   0.9180306196212769    0.0633815452456474    0.3672215342521667 B
