Os12 Ru4
1.0
   5.4756956100463876    0.0000000000000000    0.0002608621725801
  -2.7347968208333961    4.7409739719781889   -0.0020978874526933
   0.0000000000000000    0.0000000000000000    8.7671518325805664
Os Ru
12 4
direct
   0.1241519451141357    0.4404863715171814    0.9359701871871948 Os
   0.9571126103401184    0.6070472598075867    0.1857650578022003 Os
   0.2899126112461090    0.2737171351909637    0.4363363385200500 Os
   0.4569769799709320    0.1071092113852501    0.1869255006313324 Os
   0.4574224948883057    0.6076341271400452    0.6859103441238403 Os
   0.1246141940355301    0.9408226609230042    0.9356195330619812 Os
   0.4571973979473113    0.6068693399429320    0.1861407011747360 Os
   0.9575573205947876    0.1073727607727051    0.6867117285728455 Os
   0.7909811735153198    0.2739814221858978    0.4364258348941803 Os
   0.6235591769218445    0.9402475357055664    0.9355818629264832 Os
   0.9575635194778442    0.6078123450279236    0.6858420372009277 Os
   0.2902704477310181    0.7736364603042603    0.4357134997844696 Os
   0.7915836572647095    0.7753091454505920    0.4369544982910156 Ru
   0.9574168920516968    0.1072011813521385    0.1857302337884903 Ru
   0.4578968882560730    0.1078882738947868    0.6856451034545898 Ru
   0.6234079003334045    0.4395674765110016    0.9361210465431213 Ru
