Ir5 Os7
1.0
   4.3308978080749512    0.0000000000000000   -0.0014034473570068
  -2.1584970776974606    3.7498520142277059    0.0009952761465687
   0.0000000000000000    0.0000000000000000   10.8510370254516602
Ir Os
5 7
direct
   0.3834159970283508    0.1982178986072540    0.8776158094406127 Ir
   0.3852931559085845    0.1952869445085525    0.3739354908466339 Ir
   0.7181370854377747    0.8622047305107117    0.2508137524127960 Ir
   0.7167385816574097    0.8636568784713745    0.9978370666503905 Ir
   0.3830787241458893    0.1969939917325974    0.6232705712318420 Ir
   0.0503724627196789    0.5305939316749573    0.6252257823944092 Os
   0.3861313462257385    0.1956805735826492    0.1246373206377029 Os
   0.7188814282417297    0.8636634945869446    0.5006138682365417 Os
   0.0504369884729385    0.5282283425331116    0.3763875663280487 Os
   0.0521738454699516    0.5285837650299072    0.1260481476783752 Os
   0.7163748741149902    0.8648377060890197    0.7506732344627380 Os
   0.0494084358215332    0.5325074195861816    0.8724734783172606 Os
