Re2 Os3
1.0
   3.5413448810577393    0.0000000000000000    1.5793758630752566
   1.7729965315513714    4.3379184013867018    0.7761659026145934
   0.0000000000000000    0.0000000000000000    4.7459716796875000
Re Os
2 3
direct
   0.2895445227622986    0.1444656103849411    0.1137463375926017 Re
   0.4854706823825836    0.3491816818714142    0.5154707431793213 Re
   0.0897458270192146    0.9438174366950989    0.7135534882545471 Os
   0.8880668282508850    0.7464616298675537    0.3141696155071258 Os
   0.6863451004028320    0.5492478609085083    0.9147852659225464 Os
