Re4 Ir2 Os12
1.0
   3.8315114974975586    0.0000000000000000   -0.3880985975265502
   0.0090268259032590    3.8545450370506149    0.0009179101907636
   0.0000000000000000    0.0000000000000000   18.7959060668945312
Re Ir Os
4 2 12
direct
   0.0445801801979542    0.1309093385934830    0.3214634954929352 Re
   0.4407272934913635    0.6318999528884888    0.1135455220937729 Re
   0.7490668892860413    0.6299566626548767    0.7391310334205627 Re
   0.1460166871547699    0.1296734660863876    0.5290568470954895 Re
   0.3714704215526581    0.6304008364677429    0.9772980213165283 Ir
   0.8713661432266235    0.1314143091440201    0.9771118164062500 Ir
   0.5438817143440247    0.6308308839797974    0.3209734559059143 Os
   0.2472814619541168    0.1304923892021179    0.7371865510940552 Os
   0.9923753738403320    0.6313790082931517    0.2171639949083328 Os
   0.5959514379501343    0.1301922649145126    0.4256551563739777 Os
   0.4925781190395355    0.1314901113510132    0.2172561883926392 Os
   0.6951559185981750    0.1304931044578552    0.6314699053764343 Os
   0.7983713746070862    0.1302917152643203    0.8369222283363342 Os
   0.9420035481452942    0.1316958665847778    0.1158356219530106 Os
   0.1957946568727493    0.6303539872169495    0.6322652101516724 Os
   0.0963293686509132    0.6301680207252501    0.4260839223861694 Os
   0.2989119589328766    0.6310966014862061    0.8378350138664246 Os
   0.6462078094482422    0.6295573115348816    0.5297059416770935 Os
