Os14 Ru2
1.0
   5.4742550849914551    0.0000000000000000   -0.0059889866970478
  -2.7402643425098465    4.7339799079042466   -0.0042490679770712
   0.0000000000000000    0.0000000000000000    8.7479963302612305
Os Ru
14 2
direct
   0.7258322834968567    0.8518249392509460    0.5564917922019958 Os
   0.7260185480117798    0.3514243960380554    0.0565158613026142 Os
   0.8915193080902101    0.1840236634016037    0.8075228333473206 Os
   0.2255136072635651    0.8510252237319946    0.0563432946801186 Os
   0.7260959744453430    0.3514795303344727    0.5568376183509827 Os
   0.2263284027576447    0.3505594730377197    0.5568622946739197 Os
   0.3928664028644562    0.6850526928901671    0.8078799843788147 Os
   0.0587740056216717    0.5179778337478638    0.3065119385719299 Os
   0.2256442010402680    0.8516819477081299    0.5574242472648621 Os
   0.0584113225340843    0.0171364862471819    0.3059961497783661 Os
   0.5600760579109192    0.5186151266098022    0.3061065375804901 Os
   0.3931577503681183    0.1838226020336151    0.8074458241462708 Os
   0.2259632200002671    0.3512757420539856    0.0576340481638908 Os
   0.7264053225517274    0.8522055745124818    0.0560295991599560 Os
   0.8927046060562135    0.6846585869789124    0.8074663281440735 Ru
   0.5588893890380859    0.0176854208111763    0.3066981136798859 Ru
