Re3 Os5
1.0
   4.3924612998962402    0.0000000000000000   -0.0002709046821113
  -0.0008877628674381    4.8043750896400033    0.0028021393809463
   0.0000000000000000    0.0000000000000000    5.5455489158630371
Re Os
3 5
direct
   0.6648477315902710    0.2952659726142883    0.8470818996429443 Re
   0.1649440377950668    0.9634323716163634    0.3496305048465729 Re
   0.6648790240287781    0.7970505356788635    0.0996328368782997 Re
   0.6646009683609009    0.7956523299217224    0.5987271070480347 Os
   0.1650451421737671    0.4585729539394379    0.0980919301509857 Os
   0.1648418456315994    0.4620857834815978    0.5988718271255493 Os
   0.1648095548152924    0.9623900651931763    0.8489317297935486 Os
   0.6651186943054199    0.2964958548545837    0.3488888442516327 Os
