Os14 Ru2
1.0
   5.4849672317504892    0.0000000000000000    0.0065298541449010
  -2.7338115774810192    4.7547096484037654    0.0017428363207716
   0.0000000000000000    0.0000000000000000    8.7858963012695312
Os Ru
14 2
direct
   0.0179406255483627    0.6379084587097168    0.4260114729404449 Os
   0.8510934710502625    0.8040804266929626    0.1754723340272903 Os
   0.1849569678306580    0.4706098735332490    0.9252489805221558 Os
   0.5181936025619507    0.6376874446868896    0.4261796474456787 Os
   0.1839240938425065    0.9693129062652589    0.9261814355850220 Os
   0.3512485921382904    0.8039177656173706    0.6756777167320251 Os
   0.3510546088218689    0.3040185272693634    0.1759753972291946 Os
   0.8516728281974792    0.3044880032539368    0.6752388477325439 Os
   0.6848725080490112    0.9703881740570069    0.9264664053916931 Os
   0.6845693588256836    0.4706347584724427    0.9260560274124146 Os
   0.8507359027862549    0.3040452003479004    0.1761192828416824 Os
   0.5174836516380310    0.1369076818227768    0.4259767830371857 Os
   0.0173134692013264    0.1369506120681763    0.4252132475376129 Os
   0.3509037792682648    0.3035692572593690    0.6763927340507507 Os
   0.3513834476470947    0.8041599988937379    0.1762326955795288 Ru
   0.8517197370529175    0.8048467040061951    0.6763137578964233 Ru
