Os6 W4
1.0
   4.2465076446533203    0.0000000000000000    2.2236423492431641
   1.7961754758749746    5.2389820519474775   -0.0243863314390177
   0.0000000000000000    0.0000000000000000    6.8122658729553223
Os W
6 4
direct
   0.3932630717754364    0.2180801033973694    0.6341245174407959 Os
   0.5955384373664856    0.4155060946941376    0.2352806180715561 Os
   0.1923176199197769    0.0228893570601940    0.0286023728549480 Os
   0.5999196171760560    0.9194061160087585    0.2320876866579055 Os
   0.1943411529064179    0.5158694982528687    0.0284297205507755 Os
   0.7887678146362305    0.1184541508555412    0.8333433270454408 Os
   0.7832623720169067    0.6180704236030579    0.8450018167495729 W
   0.3844504654407501    0.7235590815544128    0.6338551044464111 W
   0.0075131519697607    0.3127224147319794    0.4265268146991730 W
   0.9979395866394044    0.8178161978721620    0.4249140322208406 W
