Re2 Os6
1.0
   4.3707313537597656    0.0000000000000000   -0.0037021224852651
  -0.0015016275324002    4.7843167809477292   -0.0023693810217079
   0.0000000000000000    0.0000000000000000    5.5278296470642090
Re Os
2 6
direct
   0.1894826740026474    0.8797354698181152    0.6277649998664856 Re
   0.6893866062164307    0.5469968318939209    0.1278480440378189 Re
   0.1891073882579803    0.3816654086112976    0.8776312470436096 Os
   0.6893081665039062    0.5479285717010499    0.6280561089515686 Os
   0.6894978880882263    0.0453295558691025    0.3777513206005096 Os
   0.1892837584018707    0.3815531432628632    0.3778372406959534 Os
   0.6892462372779846    0.0451902449131012    0.8780162930488586 Os
   0.1894416958093643    0.8793615102767944    0.1277667433023453 Os
