Ir6 Os10
1.0
   5.4815602302551270    0.0000000000000000   -0.0041967150755226
  -2.7548834770186668    4.7359853690588904   -0.0044971248134984
   0.0000000000000000    0.0000000000000000    8.8298978805541992
Ir Os
6 10
direct
   0.1857917904853821    0.6335904002189636    0.6027623414993286 Ir
   0.3520320355892181    0.4664877057075500    0.1025114357471466 Ir
   0.5184734463691711    0.3001149594783783    0.3542679250240326 Ir
   0.5188686251640320    0.2997600138187408    0.8515779376029968 Ir
   0.8521704673767090    0.4660542309284210    0.1029844060540199 Ir
   0.8528103232383728    0.9671959280967714    0.1026072055101395 Ir
   0.5201569795608521    0.8013971447944641    0.8517417311668396 Os
   0.0194605067372322    0.8010011911392212    0.3538101613521576 Os
   0.1841191202402115    0.1323710978031158    0.6034284830093384 Os
   0.3513485491275787    0.9658258557319641    0.1033741757273674 Os
   0.0182788278907537    0.2980593144893646    0.3555282652378082 Os
   0.6871384382247925    0.6358067989349365    0.6028943061828613 Os
   0.5202019214630127    0.8014025688171387    0.3533931672573090 Os
   0.0181747414171696    0.2986699342727661    0.8500034809112549 Os
   0.6871851682662964    0.1326840966939926    0.6023796796798706 Os
   0.0195649452507496    0.8011068105697633    0.8515639305114746 Os
