Re5 Os11
1.0
   5.5220584869384757    0.0000000000000000   -0.0010896958410741
  -2.7605350762350440    4.7757445131901042    0.0005928964237680
   0.0000000000000000    0.0000000000000000    8.8396310806274414
Re Os
5 11
direct
   0.9285620450973511    0.0271860621869564    0.5409250855445862 Re
   0.2623228430747985    0.6959785819053649    0.2923077940940857 Re
   0.0950391963124275    0.3608256578445435    0.7918694615364075 Re
   0.5956612825393677    0.3615471720695495    0.7922699451446533 Re
   0.9283861517906189    0.0268420334905386    0.0437453649938107 Re
   0.5975909233093261    0.8637983202934264    0.7916551232337952 Os
   0.4291113018989563    0.5288340449333191    0.5413658618927002 Os
   0.4291321039199829    0.0291556734591722    0.5426272749900818 Os
   0.7630515694618225    0.1949326097965240    0.2924891710281372 Os
   0.4295274913311005    0.5292185544967651    0.0431321077048779 Os
   0.0965390875935554    0.8639247417449950    0.7920987606048584 Os
   0.2616401314735413    0.1944757103919983    0.2920365929603577 Os
   0.7623776793479919    0.6956976056098938    0.2922618091106415 Os
   0.9295281767845154    0.5296053886413573    0.0429230816662312 Os
   0.9287443757057190    0.5292510390281677    0.5416268110275269 Os
   0.4290252327919006    0.0283132586628199    0.0418469123542309 Os
