Ir1 Os15
1.0
   5.4825515747070321    0.0000000000000000   -0.0015478960704061
  -2.7386341602197040    4.7439643454556331    0.0002159015857609
   0.0000000000000000    0.0000000000000000    8.7820024490356445
Ir Os
1 15
direct
   0.3317253291606903    0.4889838993549346    0.8613251447677612 Ir
   0.8321677446365356    0.9882873892784118    0.8614937663078308 Os
   0.8320953249931335    0.4887458384037017    0.3612850606441498 Os
   0.9994148612022400    0.8211035728454590    0.1111740618944168 Os
   0.1653458923101425    0.6554411053657532    0.6095353364944458 Os
   0.9989639520645142    0.3216633498668671    0.1118917763233185 Os
   0.8323596715927124    0.4885897338390350    0.8612180352210999 Os
   0.6660984158515930    0.1549245864152908    0.6113243699073792 Os
   0.8317347168922424    0.9882710576057434    0.3615554869174957 Os
   0.1655000001192093    0.1553051471710205    0.6115297675132751 Os
   0.4989612400531769    0.3210977613925934    0.1114650517702103 Os
   0.4987856745719909    0.8225321769714354    0.1123019158840179 Os
   0.3323738276958466    0.4885108172893524    0.3609704673290253 Os
   0.3318927586078643    0.9890661835670470    0.3615273535251617 Os
   0.3321863412857056    0.9882548451423645    0.8611559271812439 Os
   0.6663178801536560    0.6551176309585571    0.6108056306838989 Os
