Re4 Os4 W2
1.0
   4.5528082847595215    0.0000000000000000    1.7361665964126582
   2.1417721684457556    4.6513107624443295    1.0312321186065665
   0.0000000000000000    0.0000000000000000    7.0916795730590820
Re Os W
4 4 2
direct
   0.6603761911392212    0.7893013358116150    0.4419318735599518 Re
   0.0247856508940458    0.8715172410011293    0.6438432931900024 Re
   0.7876270413398743    0.3161983191967010    0.1499485969543457 Re
   0.5241362452507019    0.3298035562038422    0.5524554252624512 Re
   0.1797315627336502    0.2580277323722839    0.3506469428539276 Os
   0.3554967939853668    0.9502468109130859    0.8425685167312622 Os
   0.2892625927925110    0.4507331550121307    0.9491268992424011 Os
   0.8816408514976501    0.4207493066787720    0.7457354664802551 Os
   0.7386542558670043    0.9059740304946901    0.0433024130761623 W
   0.2406083345413208    0.7594637870788574    0.2415530383586884 W
