Os6 W4
1.0
   4.7860088348388672    0.0000000000000000    1.9547513723373420
   2.0686931614433637    4.6556733794926286    0.8511767387390139
   0.0000000000000000    0.0000000000000000    6.8330802917480469
Os W
6 4
direct
   0.0782453715801239    0.5727773308753967    0.1247802451252937 Os
   0.7751269936561584    0.0720392689108849    0.7300582528114319 Os
   0.5794107317924500    0.0710291489958763    0.1264384388923645 Os
   0.2756251990795135    0.5722104310989380    0.7287895679473877 Os
   0.2085861563682556    0.8225775957107544    0.3643681704998016 Os
   0.7084932327270509    0.3240468204021454    0.3625807464122772 Os
   0.1385442465543746    0.3225042521953583    0.5021499395370483 W
   0.6689726710319518    0.5728593468666078    0.9424332976341248 W
   0.6395436525344849    0.8229874968528749    0.5028003454208374 W
   0.1696153134107590    0.0723250210285187    0.9433037042617798 W
