Re3 Os13
1.0
   5.5373396873474121    0.0000000000000000    0.0030989386141301
  -2.7617631851992983    4.7990088482245579   -0.0010193684138354
   0.0000000000000000    0.0000000000000000    8.7235832214355469
Re Os
3 13
direct
   0.9997789859771729    0.4503599107265472    0.3151991963386536 Re
   0.8326419591903687    0.6161187887191772    0.0660895109176636 Re
   0.3325941562652588    0.1153683662414551    0.5653778910636902 Re
   0.3325221836566925    0.6171134114265442    0.0663099065423012 Os
   0.8317610621452332    0.1177998706698418    0.5660118460655212 Os
   0.9987837672233582    0.4492461085319519    0.8158602118492126 Os
   0.8322825431823730    0.1176869273185730    0.0660453066229820 Os
   0.4990161955356598    0.4473673701286316    0.8160875439643860 Os
   0.0009521963074803    0.9493811726570129    0.8161755800247192 Os
   0.3331805467605591    0.1166834831237793    0.0677817389369011 Os
   0.4988450407981873    0.9511746168136596    0.8159664869308472 Os
   0.8335044384002686    0.6161670088768005    0.5655714273452759 Os
   0.3313113152980804    0.6160254478454590    0.5661105513572693 Os
   0.4987608492374420    0.4480944871902466    0.3163551390171051 Os
   0.0011366626713425    0.9497467279434204    0.3158472478389740 Os
   0.4983017146587372    0.9509037137031555    0.3151540160179138 Os
