Ir2 Os4
1.0
   4.3683409690856934    0.0000000000000000   -0.0018868568586188
  -0.0012482644841941    4.1428959873319853   -2.3992304801940922
   0.0000000000000000    0.0000000000000000    4.7791571617126465
Ir Os
2 4
direct
   0.8092236518859863    0.8805132508277893    0.3456475734710694 Ir
   0.3091813325881958    0.2129084318876267    0.3454264402389527 Ir
   0.3091678321361542    0.8793453574180603    0.6809888482093811 Os
   0.8092374205589294    0.5488644838333131    0.6806226372718812 Os
   0.8091160655021667    0.2143714874982834    0.0112636955454946 Os
   0.3092113435268402    0.5450935959815979    0.0114578306674957 Os
