Ir5 Os7
1.0
   4.3659811019897461    0.0000000000000000   -0.0028851316310476
  -0.0070827585455457    4.7727756398592609   -0.0122300274670120
   0.0000000000000000    0.0000000000000000    8.2691698074340820
Ir Os
5 7
direct
   0.3075862824916840    0.9718922376632690    0.7242140173912048 Ir
   0.3074327111244202    0.4729970991611480    0.2271018624305725 Ir
   0.8072528243064880    0.3053901195526123    0.3911676704883575 Ir
   0.3071684241294861    0.9754939079284668    0.0592409297823906 Ir
   0.8074219226837158    0.3072376251220703    0.7272028326988220 Ir
   0.8074194788932800    0.8038288354873656    0.5576566457748413 Os
   0.8072211146354675    0.8090713024139404    0.2250595390796661 Os
   0.8071709871292114    0.8047605156898497    0.8937252759933472 Os
   0.8071431517601013    0.3101174533367157    0.0579605922102928 Os
   0.3072565793991089    0.4759050607681274    0.8921095132827759 Os
   0.3075838685035706    0.4747412502765656    0.5597146749496460 Os
   0.3074836730957031    0.9695277810096741    0.3942059576511383 Os
