Re2 Os10
1.0
   4.7597904205322266    0.0000000000000000   -0.4212097823619837
  -2.4337136496253038    4.0928960443975715   -0.4243749380111710
   0.0000000000000000    0.0000000000000000    8.9566535949707031
Re Os
2 10
direct
   0.3605128228664398    0.2472455948591233    0.4330727756023407 Re
   0.8610001802444458    0.4153200984001160    0.9387580752372742 Re
   0.1108292564749718    0.3300126791000366    0.6824802756309509 Os
   0.4439810514450073    0.9954655170440675    0.6830868721008301 Os
   0.5281862020492554    0.7483246922492982    0.9383755326271057 Os
   0.6119497418403625    0.4993251562118530    0.1893451958894730 Os
   0.6941657662391664    0.9134427309036256    0.4332793354988098 Os
   0.0270097684115171    0.5802694559097290    0.4311673939228058 Os
   0.7773337364196777    0.6649500131607056    0.6824880242347717 Os
   0.9446668624877930    0.1645573675632477    0.1894332766532898 Os
   0.1965553909540176    0.0833414494991303    0.9404782652854919 Os
   0.2804184556007385    0.8328205347061157    0.1896833777427673 Os
