Re2 Ir6
1.0
   4.4045367240905762    0.0000000000000000   -0.0025882220361382
  -0.0037325202877448    4.7794494359428503   -2.7681777477264404
   0.0000000000000000    0.0000000000000000    5.5230345726013184
Re Ir
2 6
direct
   0.8750737309455872    0.0221877731382847    0.2521350085735321 Re
   0.3752408921718597    0.3558921217918397    0.9191077947616577 Re
   0.8752205371856689    0.5214667916297913    0.2503400146961213 Ir
   0.8753452301025391    0.0242145862430334    0.7533543109893799 Ir
   0.3753767907619476    0.8568387031555177    0.9215649366378784 Ir
   0.8751608133316040    0.5213201642036438    0.7534026503562927 Ir
   0.3754993081092834    0.8563786149024963    0.4181290566921235 Ir
   0.3751030564308167    0.3535200953483582    0.4177021682262421 Ir
