Ir2 Os7 W2
1.0
   3.7082269191741948    0.0000000000000000    1.0327275991439822
   1.1585016833058861    6.4279275186715559    3.0177078247070317
   0.0000000000000000    0.0000000000000000    7.1918215751647949
Ir Os W
2 7 2
direct
   0.0127217676490545    0.4255129694938660    0.8578138351440430 Ir
   0.3527199327945709    0.0862722098827362    0.5189009308815002 Ir
   0.8481413125991820    0.8416466712951659    0.7703321576118469 Os
   0.5154939889907837    0.6709944009780884    0.6095422506332397 Os
   0.5169894695281981    0.1743649393320084    0.1023972481489182 Os
   0.1819396615028381    0.5060209631919861    0.4391092658042908 Os
   0.6798323988914489    0.2556490004062653    0.6935611367225647 Os
   0.3415007591247558    0.6039089560508728    0.0213200598955154 Os
   0.1821672767400741    0.0079667642712593    0.9378228187561035 Os
   0.0272824801504612    0.9094246029853821    0.3469784259796143 W
   0.8446374535560607    0.3502819240093231    0.2682706713676453 W
