Os14 W2
1.0
   5.5199131965637207    0.0000000000000000   -0.0005194229888724
  -2.7588157889312002    4.7766459450162415   -0.0013120950898153
   0.0000000000000000    0.0000000000000000    8.8294391632080078
Os W
14 2
direct
   0.9604755043983459    0.5706267356872559    0.8314116597175598 Os
   0.9605125188827515    0.0707722306251526    0.3312635719776154 Os
   0.7932693958282471    0.7371665239334106    0.5828267931938171 Os
   0.4603284597396851    0.5704559087753296    0.3307065963745117 Os
   0.7933757901191711    0.2371898591518402    0.5811848044395447 Os
   0.2935809493064880    0.2369393408298492    0.5788698196411133 Os
   0.6273664832115174    0.9039029479026796    0.0825092047452927 Os
   0.1267275065183640    0.9038184285163881    0.0810724496841431 Os
   0.1270002126693726    0.4037446081638337    0.0794045552611351 Os
   0.4607121050357819    0.5702760219573975    0.8310195207595825 Os
   0.4607111513614655    0.0700497627258301    0.3312623500823975 Os
   0.6271417737007141    0.4038726687431335    0.0813102796673775 Os
   0.9604887366294861    0.0705108791589737    0.8305646181106567 Os
   0.2936763167381287    0.7370767593383789    0.5812541842460632 Os
   0.9607357978820801    0.5706146955490112    0.3307264447212219 W
   0.4602907598018646    0.0705440714955330    0.8311073780059814 W
