B6 Ir1 Os5
1.0
   2.8024101257324219    0.0000000000000000   -0.0013835201971236
  -0.0149389528843573    3.6177259994175648    0.5153811573982243
   0.0000000000000000    0.0000000000000000   12.0238924026489258
B Ir Os
6 1 5
direct
   0.6170929074287415    0.3467038869857788    0.7551253437995911 B
   0.1182865127921104    0.6015154123306274    0.4190086424350739 B
   0.6174209117889404    0.5344788432121277    0.3155839145183563 B
   0.1165841966867447    0.1068004146218300    0.0894680842757225 B
   0.1147826686501503    0.7515630722045897    0.9847056865692139 B
   0.6167594194412231    0.0215094089508057    0.6500586867332458 B
   0.1175744235515594    0.5477432012557983    0.6021143198013306 Ir
   0.6160840392112732    0.5959114432334899    0.1306752711534500 Os
   0.6172656416893005    0.1304251551628113    0.4621063768863678 Os
   0.1156691759824753    0.8251113295555114    0.8031320571899414 Os
   0.6163879632949829    0.2491770386695862    0.9418059587478638 Os
   0.1169485226273537    0.0099419867619872    0.2710370719432831 Os
