Ir3 Os4
1.0
   4.3049764633178711    0.0000000000000000   -0.0014638153370466
  -0.0006831334153257    4.7340158923307207   -2.7327253818511967
   0.0000000000000000    0.0000000000000000    5.4664649963378906
Ir Os
3 4
direct
   0.5229204893112183    0.6373456716537474    0.9677942991256714 Ir
   0.0229999329894781    0.9757305979728699    0.6341574192047120 Ir
   0.5235466361045837    0.6365021467208862    0.4576041996479034 Ir
   0.5226688385009766    0.1422598958015442    0.4658828377723694 Os
   0.0234446041285992    0.4786536395549774    0.6316755414009094 Os
   0.0229749362915754    0.9792470932006835    0.1282497197389603 Os
   0.5230727195739746    0.1485474258661270    0.9718522429466248 Os
