Re9 Os1
1.0
   2.7741765975952148    0.0000000000000000   -0.0014274554559970
  -0.0024604080117430    2.7728169969328786   -0.0007107944693417
   0.0000000000000000    0.0000000000000000   19.7617893218994141
Re Os
9 1
direct
   0.9142128229141235    0.7872226238250732    0.9109936356544495 Re
   0.9123369455337524    0.7899894714355468    0.5098448991775513 Re
   0.4123505651950836    0.2893639504909515    0.4093403220176697 Re
   0.4149133861064911    0.2874065637588501    0.8123757243156433 Re
   0.4135733544826508    0.2902501225471497    0.6100968718528748 Re
   0.4126470983028412    0.2868023812770844    0.2121168076992035 Re
   0.9139387011528015    0.7890596389770508    0.7118635773658752 Re
   0.4156357645988464    0.2853399813175201    0.0108363581821322 Re
   0.9134297370910645    0.7853461503982543    0.1145543009042740 Re
   0.9113615751266479    0.7892495393753052    0.3135601878166199 Os
