Ir2 Os6
1.0
   2.7554445266723633    0.0000000000000000    0.0001660877023821
   0.0024274673455710    4.3602483667929137    0.0040754228830339
   0.0000000000000000    0.0000000000000000    9.5610933303833008
Ir Os
2 6
direct
   0.6757197380065918    0.2002139538526535    0.2158793359994888 Ir
   0.6758219599723816    0.7002824544906616    0.0481308326125145 Ir
   0.1762141138315201    0.1999741196632385    0.4666505157947540 Os
   0.1758730113506317    0.7001406550407410    0.7965595722198486 Os
   0.1758627146482468    0.2000125199556351    0.9610300660133362 Os
   0.6757569313049316    0.1998945772647858    0.7144146561622620 Os
   0.6763688921928406    0.7000281810760498    0.5489877462387085 Os
   0.1757356077432632    0.7002224922180176    0.3022031486034393 Os
