Ir4 Os12
1.0
   5.4959511756896973    0.0000000000000000    0.0052031092345718
  -2.7466355516541077    4.7576870183038906   -0.0035615197848524
   0.0000000000000000    0.0000000000000000    8.8256425857543945
Ir Os
4 12
direct
   0.1822720468044281    0.8899183273315430    0.3078677356243134 Ir
   0.8500270843505858    0.2226789742708206    0.8097952604293823 Ir
   0.0157077796757221    0.0564631894230843    0.5586904883384705 Ir
   0.5159526467323303    0.5558471083641052    0.0585673823952675 Ir
   0.5160965919494629    0.5562498569488525    0.5584819316864014 Os
   0.1820610463619232    0.3897910118103027    0.3079925775527954 Os
   0.8494436144828795    0.7225249409675598    0.8092970252037048 Os
   0.0159188043326139    0.5559715032577515    0.5589334368705750 Os
   0.5159040093421936    0.0560132786631584    0.5587703585624695 Os
   0.3491068482398987    0.7230722904205322    0.8084520697593689 Os
   0.0160490274429321    0.0560850165784359    0.0583676733076572 Os
   0.0159983243793249    0.5562147498130798    0.0588545836508274 Os
   0.5158340334892273    0.0562572330236435    0.0591042265295982 Os
   0.6825321316719055    0.8899544477462769    0.3078016042709351 Os
   0.6831203699111938    0.3889906108379364    0.3091550767421722 Os
   0.3494179844856262    0.2227600961923599    0.8092444539070129 Os
