Re8 N2
1.0
   5.1882853507995597    0.0000000000000000   -1.4532116651535039
  -2.8117221788498923    4.3605530968737076   -1.4503470659255975
   0.0000000000000000    0.0000000000000000    5.7557840347290039
Re N
8 2
direct
   0.4211867749691010    0.1260123848915100    0.9685398936271666 Re
   0.3594997525215149    0.5627114772796631    0.7956944704055786 Re
   0.9491613507270813    0.6654718518257141    0.4861886203289031 Re
   0.8428283929824829    0.0477559603750706    0.8156646490097046 Re
   0.4154704809188843    0.1291933208703995    0.4688228070735931 Re
   0.8532480001449585    0.0688170939683914    0.2948947250843048 Re
   0.3385491967201233    0.5534858703613281    0.3150791227817535 Re
   0.9548841714859009    0.6574582457542419    0.9855945706367492 Re
   0.8819422125816345    0.3443444669246674    0.6397327780723572 N
   0.6365920901298523    0.5948511362075806    0.1433811783790588 N
