Re2 Ir2 Os5 Ru2
1.0
   3.7582225799560551    0.0000000000000000   -0.9105032086372373
  -0.7696729059595658    5.1440818618332731   -3.1893248558044425
   0.0000000000000000    0.0000000000000000    8.2057209014892578
Re Ir Os Ru
2 2 5 2
direct
   0.9009155035018921    0.7561227679252625    0.6300361752510071 Re
   0.1747740507125855    0.9411848187446595    0.1783533692359925 Re
   0.6288343071937561    0.5790017843246460    0.0866409912705421 Ir
   0.0824007540941238    0.2084714621305466    0.9934781193733215 Ir
   0.7204456925392151    0.3043316304683685    0.2695153057575226 Os
   0.3560756444931030    0.3931205868721008    0.5403626561164856 Os
   0.9923707842826843    0.4883986115455627    0.8135789036750793 Os
   0.5385523438453674    0.8494016528129578    0.9051930308341980 Os
   0.4466644227504730    0.1221628636121750    0.7220612764358521 Os
   0.8121120333671570    0.0331513434648514    0.4520701467990875 Ru
   0.2668874561786652    0.6704219579696655    0.3623054027557373 Ru
