Re1 Os5
1.0
   4.3616213798522949    0.0000000000000000   -0.0014804764650768
  -0.0009876283393494    4.1501439826740425   -2.3989219665527335
   0.0000000000000000    0.0000000000000000    4.7946424484252930
Re Os
1 5
direct
   0.5069661736488342    0.3390961289405823    0.9159084558486940 Re
   0.0067564737983048    0.0040798913687468    0.9159650206565858 Os
   0.5068945288658142    0.6725915670394897    0.5825895667076111 Os
   0.0068066935054958    0.6740258932113649    0.2511121034622193 Os
   0.5069395899772644    0.0058797700330615    0.2492693364620209 Os
   0.0067682079970837    0.3391755819320679    0.5808128714561462 Os
