Ir2 Os14
1.0
   5.4778151512145996    0.0000000000000000   -0.0084560271352525
  -2.7438665136456839    4.7377061735853641   -0.0019980329088868
   0.0000000000000000    0.0000000000000000    8.7714843750000000
Ir Os
2 14
direct
   0.2355418056249618    0.5608803033828734    0.2919209003448486 Ir
   0.0684297978878021    0.2269071340560913    0.7914999723434448 Ir
   0.2365936636924743    0.0604158863425255    0.2914895713329315 Os
   0.0682237446308136    0.7270824909210205    0.7923818230628967 Os
   0.9010242223739623    0.3940407037734985    0.0423586033284664 Os
   0.4024020433425903    0.8946455121040344    0.0409301742911339 Os
   0.4037453830242157    0.3939476013183594    0.5421022772789001 Os
   0.4035786688327789    0.3939559161663055    0.0415123775601387 Os
   0.9004672765731810    0.3943559527397156    0.5419340729713440 Os
   0.4025481343269348    0.8946425318717957    0.5434277653694153 Os
   0.9015300869941710    0.8936065435409545    0.0436426885426044 Os
   0.7351056337356567    0.0609554424881935    0.2920784652233124 Os
   0.7349218130111694    0.5599032044410706    0.2911585271358490 Os
   0.5698267817497253    0.7267038822174072    0.7917098402976990 Os
   0.9017726182937621    0.8929528594017028    0.5401662588119507 Os
   0.5694714188575745    0.2279526293277740    0.7922759652137756 Os
