Os2 W13
1.0
   5.2224221229553223    0.0000000000000000    0.7135624885559079
   0.5773717965961752    6.4854036341516794    2.8435659408569336
   0.0000000000000000    0.0000000000000000    7.1096286773681641
Os W
2 13
direct
   0.5147582292556763    0.8544293045997619    0.9808526039123534 Os
   0.7796322703361511    0.7880376577377319    0.5819763541221619 Os
   0.0424853600561619    0.7217710614204406    0.1822488307952881 W
   0.3089072406291962    0.6542448401451111    0.7807430624961852 W
   0.9126189351081848    0.2532529532909393    0.3826404213905334 W
   0.1155542582273483    0.4532932341098785    0.5813103914260864 W
   0.2518945336341858    0.9206786751747130    0.3803487718105316 W
   0.7150298357009888    0.0552981607615948    0.1801440417766571 W
   0.8478673100471497    0.5202446579933167    0.9825314283370971 W
   0.1784346103668213    0.1889096945524215    0.9811984896659850 W
   0.6468735337257385    0.3212213516235352    0.7810698747634887 W
   0.4458385705947876    0.1220032423734665    0.5800814628601074 W
   0.3815563321113587    0.3891139626502990    0.1799727231264114 W
   0.9849009513854980    0.9879071116447449    0.7822179794311522 W
   0.5787850618362427    0.5867029428482056    0.3824845850467681 W
