Re11 Os5
1.0
   4.4117956161499023    0.0000000000000000    0.0003711116150950
  -0.0004890437121996    4.8261222591575015   -0.0022364745382214
   0.0000000000000000    0.0000000000000000   11.1836347579956055
Re Os
11 5
direct
   0.3991440236568451    0.4489822089672089    0.8606739640235901 Re
   0.8994023799896240    0.1157129406929016    0.1106268540024757 Re
   0.3992744386196136    0.9528325200080870    0.4855813086032867 Re
   0.8991764783859253    0.6159846782684326    0.4864020049571991 Re
   0.3992219865322113    0.4486511051654816    0.3606972992420197 Re
   0.8997526764869690    0.1161223277449608    0.8606293797492981 Re
   0.8994320034980774    0.6130614876747131    0.9847131967544556 Re
   0.8995931148529053    0.1154443547129631    0.3598856925964355 Re
   0.3990063369274139    0.9495743513107301    0.7345284819602966 Re
   0.8991314768791199    0.1175375506281853    0.6112442612648010 Re
   0.3995428979396820    0.4490665197372437    0.1101883649826050 Re
   0.3990922272205353    0.9485366344451903    0.2356228977441788 Os
   0.3993930518627167    0.9506673216819762    0.9856395125389099 Os
   0.8989636301994324    0.6149823069572449    0.2360941320657730 Os
   0.8991644978523254    0.6159725785255432    0.7352396249771118 Os
   0.3992513120174408    0.4493951201438903    0.6107096672058105 Os
