Ir4 Os6
1.0
   4.4708981513977051    0.0000000000000000    1.5476819276809692
   1.5002046502758899    4.4616126090869139    0.5179892778396602
   0.0000000000000000    0.0000000000000000    7.2312364578247070
Ir Os
4 6
direct
   0.2336320281028748    0.3567580878734588    0.7387299537658690 Ir
   0.7337223887443541    0.8567173480987549    0.7375830411911010 Ir
   0.5346407294273376    0.8569628596305846    0.1361832022666931 Ir
   0.8364540934562683    0.3568443357944488    0.5324276685714722 Ir
   0.3364644944667817    0.8566242456436156    0.5322504043579102 Os
   0.0352545082569122    0.3570703268051147    0.1351463794708252 Os
   0.6336140632629395    0.3570269942283630    0.9380986094474791 Os
   0.1340560913085938    0.8571718931198120    0.9366123676300048 Os
   0.9333403110504150    0.8570669889450073    0.3388445079326629 Os
   0.4336479008197784    0.3569882512092590    0.3375465571880340 Os
