Ir3 Os9
1.0
   4.3550562858581543    0.0000000000000000    0.0001145446876766
  -0.0002240145618066    4.7862281746892528    0.0054965964518484
   0.0000000000000000    0.0000000000000000    8.2995176315307617
Ir Os
3 9
direct
   0.8316998481750488    0.1362584084272385    0.0829225927591324 Ir
   0.8320018649101257    0.6373775005340576    0.5823008418083191 Ir
   0.3318294882774353    0.9694665074348450    0.9163206219673157 Ir
   0.3318555653095245    0.9698351025581359    0.2515952587127686 Os
   0.3317629694938660    0.4723117053508759    0.0838611796498299 Os
   0.8318967223167419    0.6372951865196228    0.2486347407102585 Os
   0.3318570852279663    0.4688209295272827    0.7491563558578491 Os
   0.3319377303123474    0.9722945094108582    0.5817065238952637 Os
   0.8319858312606812    0.1374849379062653    0.4160715639591217 Os
   0.8318598866462708    0.1366856545209885    0.7478231787681580 Os
   0.8318461179733276    0.6332401633262633    0.9155344367027283 Os
   0.3319917321205139    0.4695940315723419    0.4156153202056885 Os
