Ir4 Os8
1.0
   4.3618354797363281    0.0000000000000000   -0.0012512417742994
  -0.0016376351824953    4.7723877004392037   -0.0003307470760774
   0.0000000000000000    0.0000000000000000    8.2794036865234375
Ir Os
4 8
direct
   0.5478925108909607    0.7409113049507141    0.0743883699178696 Ir
   0.0479230582714081    0.4110307395458221    0.4066460430622101 Ir
   0.0477844551205635    0.9108511805534363    0.5749335289001465 Ir
   0.5476868152618408    0.2410786598920822    0.9063443541526794 Ir
   0.0477734059095383    0.9056648612022400    0.9075313210487366 Os
   0.5478976964950562    0.7465720772743225    0.4075395762920380 Os
   0.5479447245597839    0.2422810196876526    0.2425022721290588 Os
   0.0479515083134174    0.4056642055511475    0.0737859830260277 Os
   0.5477527976036072    0.2464408725500107    0.5736680626869202 Os
   0.0477115958929062    0.4095886051654816    0.7423550486564636 Os
   0.5478310585021973    0.7423534989356995    0.7387443184852600 Os
   0.0479218102991581    0.9099987745285034    0.2385365664958954 Os
