Ir1 Os8
1.0
   3.8586833477020264    0.0000000000000000    0.0002601861779114
   1.9316504744131473    5.4914513943502730    1.8363438844680784
   0.0000000000000000    0.0000000000000000    6.1006965637207031
Ir Os
1 8
direct
   0.4557844400405883    0.4519228637218476    0.3108904957771301 Ir
   0.0116220032796264    0.3396811187267303    0.6457290649414062 Os
   0.1228362768888474    0.1173124313354492    0.3110356628894806 Os
   0.2336202412843704    0.8964034914970399    0.9772030115127565 Os
   0.5668637752532959    0.2293851524591446    0.9768630862236024 Os
   0.7885107994079589    0.7863866686820985    0.3111423552036285 Os
   0.6779491305351258    0.0074600921943784    0.6448670029640198 Os
   0.8996400833129884    0.5640362501144409    0.9764412045478822 Os
   0.3445546329021455    0.6745095849037170    0.6452374458312988 Os
