Ir15 Os3
1.0
   3.8415260314941411    0.0000000000000000   -0.0015049772337077
  -0.0068174221072298    3.8471113834780786   -0.0034741561394184
   0.0000000000000000    0.0000000000000000   18.9102172851562500
Ir Os
15 3
direct
   0.4606666862964630    0.9257022142410278    0.7664532661437988 Ir
   0.4606623947620391    0.9248372316360474    0.5595740079879761 Ir
   0.9609118103981017    0.9260891675949097    0.8737112283706665 Ir
   0.4603133797645568    0.4244855046272278    0.4548597931861877 Ir
   0.9608208537101744    0.4259015023708344    0.9726450443267823 Ir
   0.4614946544170379    0.9241698384284973    0.3531309068202972 Ir
   0.9607770442962645    0.4259908497333527    0.7682936191558838 Ir
   0.4599094092845916    0.9250587224960326    0.1601130515336990 Ir
   0.4608606696128845    0.4250864684581757    0.6631649732589722 Ir
   0.9609006047248839    0.9253945350646973    0.2543311417102814 Ir
   0.9606346487998961    0.4241666793823242    0.1606354266405106 Ir
   0.9605143070220946    0.9248816370964050    0.4540834426879883 Ir
   0.9605961441993712    0.9250276088714600    0.6641160845756531 Ir
   0.4609737396240234    0.4258755147457123    0.8705840110778809 Ir
   0.9603944420814513    0.4255250692367553    0.5620843172073364 Ir
   0.4609890282154083    0.9255324006080627    0.9750955104827882 Os
   0.4607877135276794    0.4259791970252991    0.0695804432034492 Os
   0.9614559412002562    0.4239284694194794    0.3547008335590363 Os
