Re3 Ir9 Os7
1.0
   3.8562552928924561    0.0000000000000000   -0.0004143595870117
  -0.0031514700681909    5.4457097471383644   -0.0070990175008787
   0.0000000000000000    0.0000000000000000   13.6379652023315430
Re Ir Os
3 9 7
direct
   0.3690775334835052    0.8971345424652098    0.8709631562232971 Re
   0.3693293631076813    0.4059385359287262    0.2654827535152435 Re
   0.8692366480827332    0.1539310812950134    0.9785897731781006 Re
   0.8692145943641663    0.6516003012657166    0.5703452825546265 Ir
   0.3690193295478821    0.3972811996936798    0.4692896902561188 Ir
   0.3690594136714935    0.8996496796607971    0.0715501755475998 Ir
   0.8689413070678711    0.6527767181396484    0.3656658232212067 Ir
   0.3692258298397064    0.9000033736228943    0.6703429818153381 Ir
   0.8692439794540405    0.1537614315748215    0.1710633486509323 Ir
   0.8693069219589233    0.6491650342941284    0.9711970090866089 Ir
   0.3688336610794067    0.3993640840053558    0.6712945699691772 Ir
   0.8691833019256592    0.1487217694520950    0.7727810144424438 Ir
   0.8690004944801331    0.1483759582042694    0.5658433437347412 Os
   0.8689333796501160    0.1485389173030853    0.3670730888843536 Os
   0.8691353797912598    0.6512888669967651    0.7733644843101501 Os
   0.3692268729209900    0.4004551172256470    0.8714501261711121 Os
   0.3690044581890106    0.9021994471549988    0.4685797691345215 Os
   0.3689250349998474    0.4021725356578827    0.0721163600683212 Os
   0.3691516220569611    0.9000421762466431    0.2713334858417511 Os
