Ir5 Os7
1.0
   3.8145141601562500    0.0000000000000000   -0.6318383216857920
  -0.1111590865722758    3.7988396006057350   -0.6295560598373416
   0.0000000000000000    0.0000000000000000   11.8810920715332031
Ir Os
5 7
direct
   0.4880730509757996    0.8298895955085754    0.4312375485897064 Ir
   0.5712574720382690    0.4129683673381806    0.5976734161376953 Ir
   0.8198396563529969    0.1612121611833572    0.0948210433125496 Ir
   0.6538814306259155    0.9953971505165101    0.7626379132270813 Ir
   0.7366658449172975    0.5780952572822571    0.9280836582183838 Ir
   0.0700011402368546    0.9112512469291687    0.5952622294425964 Os
   0.4049661457538605    0.2464253455400467    0.2658702433109283 Os
   0.9032833576202394    0.7440080046653749    0.2606726288795471 Os
   0.3226209580898285    0.6641743779182435    0.1002569496631622 Os
   0.1537517607212067    0.4955004453659058    0.7624658942222595 Os
   0.9852963089942933    0.3268963098526001    0.4258132874965668 Os
   0.2377425730228424    0.0793832391500473    0.9300482869148254 Os
