Re12 Os3
1.0
   5.5590753555297852    0.0000000000000000    0.0064968066290007
  -2.7750067654246200    4.8146549761569135    0.0006569175166081
   0.0000000000000000    0.0000000000000000    8.7795858383178711
Re Os
12 3
direct
   0.8575393557548523    0.8535887002944945    0.7901887297630310 Re
   0.3577916920185089    0.8570233583450316    0.2839204967021942 Re
   0.6910525560379028    0.0241611301898956    0.5387177467346191 Re
   0.3579403758049011    0.8566891551017761    0.7937923073768616 Re
   0.3600938618183135    0.3573641777038574    0.2860735654830933 Re
   0.1918558180332184    0.0260157510638237    0.0388123020529747 Re
   0.8584870100021362    0.3570029437541962    0.2854279577732086 Re
   0.1899154484272003    0.5218591690063477    0.5388070940971375 Re
   0.8573715686798096    0.3574250638484955    0.7926129698753357 Re
   0.1904806047677994    0.0237529575824738    0.5389928221702576 Re
   0.8588344454765320    0.8561814427375792    0.2877503037452698 Re
   0.6914236545562744    0.5232014060020447    0.5394264459609985 Re
   0.6954994797706604    0.0249115284532309    0.0377816893160343 Os
   0.3585598170757294    0.3562746345996857    0.7878851890563965 Os
   0.1918505579233170    0.5216625332832336    0.0390736535191536 Os
