Ir1 Os3
1.0
   3.5258369445800781    0.0000000000000000   -1.5792074203491220
  -0.7082315431437688    3.4536976961775236   -1.5813630819320679
   0.0000000000000000    0.0000000000000000    4.7213692665100098
Ir Os
1 3
direct
   0.4131433367729187    0.6708048582077026    0.7777585387229919 Ir
   0.6631885766983032    0.4207884669303894    0.2778078019618988 Os
   0.1630135178565979    0.9212152957916260    0.2778646647930145 Os
   0.9132746458053589    0.1711919009685516    0.7778226137161255 Os
