Re2 Ir2 Os2
1.0
   2.7177193164825439    0.0000000000000000   -0.5247998833656317
  -0.0060731573425876    4.3855243593433819   -0.0028583165258165
   0.0000000000000000    0.0000000000000000    7.3387603759765625
Re Ir Os
2 2 2
direct
   0.8651905059814453    0.7235658764839172    0.0285657495260239 Re
   0.4239026904106140    0.2235489338636398    0.1449487805366516 Re
   0.5346297025680542    0.7231953144073486    0.3658361434936523 Ir
   0.0903821364045143    0.2230982780456543    0.4764481782913207 Ir
   0.2038045972585678    0.7232939004898071    0.7038712501525879 Os
   0.7583000063896179    0.2236355543136597    0.8124023675918579 Os
