Ir4 Os10
1.0
   4.7833876609802246    0.0000000000000000   -0.0064580021426083
  -2.3980609606280177    5.9791529488647495   -0.5486979484558120
   0.0000000000000000    0.0000000000000000    7.0205526351928711
Ir Os
4 10
direct
   0.5785937905311584    0.6705143451690674    0.1633960455656052 Ir
   0.0074293040670455    0.5239999294281006    0.3066433370113373 Ir
   0.3410545587539673    0.5251048207283020    0.8051973581314087 Ir
   0.1965395510196686    0.2373776435852051    0.0903224945068359 Ir
   0.6240610480308533    0.0949392244219780    0.2358673363924026 Os
   0.0563383437693119    0.9547431468963622    0.3782850801944733 Os
   0.1492897719144821    0.8100104928016663    0.0196285359561443 Os
   0.4850287139415741    0.8123985528945923    0.5223244428634644 Os
   0.8635053634643555    0.2380564063787460    0.5927523374557495 Os
   0.2929701507091522    0.0958376154303551    0.7340979576110840 Os
   0.9116831421852112    0.6695014834403992    0.6620615720748901 Os
   0.4341533184051514    0.3799647986888885    0.4494425356388092 Os
   0.7219009399414062    0.9551121592521667    0.8766545057296753 Os
   0.7689483761787415    0.3800285458564758    0.9473582506179810 Os
