Ir1 Os7
1.0
   2.7542901039123535    0.0000000000000000   -0.0034250048920514
  -0.0028761045617354    4.3613891655115511   -0.0039583290927120
   0.0000000000000000    0.0000000000000000    9.5312576293945312
Ir Os
1 7
direct
   0.8145476579666138    0.1126969307661057    0.6710156798362732 Ir
   0.8142670392990112    0.6127236485481262    0.8393405079841614 Os
   0.3143826425075531    0.6128700971603394    0.5879996418952942 Os
   0.3141903281211853    0.6127732396125793    0.0897743180394173 Os
   0.3146811723709106    0.1128517240285873    0.4215175211429596 Os
   0.8145301938056946    0.1128318980336189    0.1728052943944931 Os
   0.3141945898532867    0.1127618476748466    0.9239746928215027 Os
   0.8140341639518738    0.6128280758857727    0.3384745717048645 Os
