Os13 W2
1.0
   5.4961729049682617    0.0000000000000000    0.0072226324118680
  -2.7377181582256340    4.7604499975647343    0.0177340805530532
   0.0000000000000000    0.0000000000000000    8.8419780731201172
Os W
13 2
direct
   0.1831674724817276    0.6462004184722900    0.1742621511220932 Os
   0.6777575016021729    0.6467157602310181    0.1744153350591660 Os
   0.1830065846443176    0.1521404236555099    0.6665021777153015 Os
   0.6819469332695007    0.1496584415435791    0.6737947463989258 Os
   0.5166927576065063    0.3171137869358063    0.9184390902519226 Os
   0.1830693632364273    0.6494053602218628    0.6672279834747314 Os
   0.6813521981239319    0.6501806378364563    0.6662755608558655 Os
   0.8508000969886780    0.9847912192344666    0.4200683832168579 Os
   0.5158876776695251    0.8171077966690063    0.9216923713684082 Os
   0.3476314842700959    0.9850121140480043    0.4198562204837799 Os
   0.3491219878196716    0.4839182198047638    0.4209293425083160 Os
   0.8483244180679321    0.4824291169643402    0.4188888967037201 Os
   0.0154807101935148    0.3171766400337219    0.9193978309631348 Os
   0.0182459428906441    0.8227725028991699    0.9258707761764526 W
   0.6814094781875610    0.1480986773967743    0.1659775376319885 W
