Ir1 Os8
1.0
   3.6628410816192631    0.0000000000000000    1.2181761264801021
   1.8240347151595402    5.7914566280119368    0.6098231077194218
   0.0000000000000000    0.0000000000000000    6.1000308990478516
Ir Os
1 8
direct
   0.7529453039169312    0.3939268290996552    0.1002356931567192 Ir
   0.4200861454010010    0.0596389994025230    0.1001268029212952 Os
   0.0866465419530869    0.0600263290107250    0.7662839889526367 Os
   0.7527571320533752    0.0599910505115986    0.4342640340328217 Os
   0.0858283862471580    0.3939309120178223    0.4350750446319580 Os
   0.7529971003532410    0.7278464436531068    0.7663249969482422 Os
   0.4204045534133911    0.3940855264663696    0.7654606699943542 Os
   0.0858677774667740    0.7283614277839661    0.1001446321606636 Os
   0.4191256463527679    0.7279928326606752    0.4343677759170532 Os
