Ir5 Os7
1.0
   4.3669352531433105    0.0000000000000000   -0.0071977265179156
  -0.0030078084035168    4.7698688560427822   -0.0059865666553374
   0.0000000000000000    0.0000000000000000    8.2677564620971680
Ir Os
5 7
direct
   0.6540532708168030    0.7133229970932007    0.0091550629585981 Ir
   0.6541032195091248    0.2109675109386444    0.1774996966123581 Ir
   0.1540735065937042    0.3772436380386353    0.0111379679292440 Ir
   0.1542156338691711    0.3809631764888763    0.6764100193977356 Ir
   0.1541254073381424    0.8805912733078003    0.5093847513198853 Ir
   0.1539645195007324    0.8823723793029785    0.8439727425575256 Os
   0.6541144847869873    0.2117366790771484    0.8408629298210144 Os
   0.6539486646652222    0.7124463915824889    0.3442740142345428 Os
   0.1541619896888733    0.8763896226882935    0.1775923520326614 Os
   0.6540801525115967    0.7158312201499939    0.6768351793289185 Os
   0.1540933549404144    0.3789997994899750    0.3429281115531921 Os
   0.6539076566696167    0.2154844254255295    0.5103611350059509 Os
