Ir5 Os7
1.0
   4.3787298202514640    0.0000000000000000    0.0030403730925173
   0.0041918859873671    4.7793465350964226    0.0033880514092743
   0.0000000000000000    0.0000000000000000    8.2943067550659180
Ir Os
5 7
direct
   0.8982114791870117    0.1963641941547394    0.1839494705200195 Ir
   0.8984526395797729    0.6999111771583557    0.6858059763908386 Ir
   0.8983672261238098    0.1985888034105301    0.5189687609672546 Ir
   0.3984133899211884    0.5320852994918823    0.1840871870517731 Ir
   0.3982124626636505    0.0299483947455883    0.3528376221656799 Ir
   0.3985163271427155    0.0294184312224388    0.0154845220968127 Os
   0.3984546661376953    0.5320466756820679    0.8507229089736938 Os
   0.8984547853469849    0.6998204588890076    0.0192502550780773 Os
   0.8981013894081116    0.6955410242080688    0.3524925708770752 Os
   0.8986526131629944    0.1985431164503098    0.8532860279083252 Os
   0.3986144065856934    0.0344677381217480    0.6871687769889832 Os
   0.3983145654201508    0.5348853468894958    0.5196864604949951 Os
