Re8 Os4
1.0
   3.8460564613342290    0.0000000000000000   -0.6296173334121707
  -0.1036211296524175    3.8450602917143937   -0.6305015683174136
   0.0000000000000000    0.0000000000000000   12.0307722091674805
Re Os
8 4
direct
   0.5841136574745178    0.4602839946746826    0.1513194143772125 Re
   0.4168734252452850    0.2926958203315735    0.8158911466598512 Re
   0.9997396469116211    0.3758419156074524    0.9827511906623841 Re
   0.8340808749198914    0.2101148962974548    0.6510782241821289 Re
   0.6662954092025757    0.0421188026666641    0.3148837685585022 Re
   0.2512601017951965    0.1265292614698410    0.4848344624042512 Re
   0.5010880231857300    0.8773006200790405    0.9842160344123841 Re
   0.7493922114372253    0.6258472800254822    0.4829995334148408 Re
   0.9158070683479309    0.7925003767013550    0.8143150210380555 Os
   0.3347982466220856    0.7106119394302368    0.6519874334335327 Os
   0.1661344170570374    0.5420367717742920    0.3138763308525085 Os
   0.0848102420568466    0.9605338573455811    0.1526682525873184 Os
