Re2 Ir3 Os7
1.0
   4.3653550148010263    0.0000000000000000   -0.0001219622790810
  -0.0014791232298017    4.7843806841403564   -0.0005574339302259
   0.0000000000000000    0.0000000000000000    8.3013496398925781
Re Ir Os
2 3 7
direct
   0.9552615284919739    0.9562335014343262    0.7295697331428528 Re
   0.4549971818923950    0.2931153178215027    0.0621559694409370 Re
   0.9550647139549255    0.9575894474983215    0.0618486106395721 Ir
   0.4553147554397583    0.7891936898231506    0.5614573955535889 Ir
   0.9551018476486206    0.4574400186538696    0.8955608010292053 Ir
   0.4553191363811493    0.7918863296508789    0.2287246137857437 Os
   0.4552769362926483    0.7933008670806885    0.8955568075180054 Os
   0.4553620219230652    0.2906359434127808    0.7293403744697571 Os
   0.9550263285636902    0.9576277732849122    0.3942388594150543 Os
   0.9552441239356995    0.4582801461219788    0.2313817888498306 Os
   0.4553181827068329    0.2887490689754486    0.3955619037151337 Os
   0.9551638364791870    0.4527688026428223    0.5613287687301636 Os
