Re5 Os5
1.0
   2.7489130496978760    0.0000000000000000    0.0006175867165430
  -0.0004313053482910    4.8050708577181132   -0.0188858229666950
   0.0000000000000000    0.0000000000000000   11.1246452331542969
Re Os
5 5
direct
   0.0075597604736686    0.0265244804322720    0.6126371026039124 Re
   0.5081428885459900    0.1974167078733444    0.4083259105682373 Re
   0.0077770575881004    0.3638364374637604    0.8104917407035828 Re
   0.5076971650123596    0.8637308478355409    0.2060351669788361 Re
   0.0074602118693292    0.3649153113365173    0.2028970569372177 Re
   0.0078838132321835    0.0309027377516031    0.0043990677222610 Os
   0.5077489018440247    0.5311246514320374    0.0059190164320171 Os
   0.5079048871994019    0.8641533851623535    0.8101404905319214 Os
   0.5076316595077515    0.5301563739776611    0.6108942031860352 Os
   0.0078801615163684    0.6964863538742065    0.4092450737953186 Os
