Re2 Os7
1.0
   3.6742408275604244    0.0000000000000000    1.2202233076095583
   1.8315310727578544    5.8187007770922508    0.6138542294502259
   0.0000000000000000    0.0000000000000000    6.1305427551269531
Re Os
2 7
direct
   0.0707639157772064    0.6293630003929138    0.2853086590766907 Re
   0.0706129521131514    0.9639328718185426    0.9508394002914429 Re
   0.0704725384712219    0.2965028285980225    0.6180819272994995 Os
   0.4032471179962159    0.2976377606391907    0.9514380097389221 Os
   0.7378687858581543    0.6291236281394958    0.9507964849472046 Os
   0.4035666882991791    0.9640881419181825    0.2852985858917236 Os
   0.7381035089492797    0.2954652011394501    0.2845188975334167 Os
   0.4035536348819733    0.6300659775733948    0.6191028952598572 Os
   0.7385056614875790    0.9629556536674501    0.6168147325515748 Os
