Ir4 Os14 W1
1.0
   4.3652520179748535    0.0000000000000000    0.0012096895370637
   0.0024801606024064    5.4746097668811879   -0.6319837570190440
   0.0000000000000000    0.0000000000000000   11.9854707717895508
Ir Os W
4 14 1
direct
   0.3139287531375885    0.3831863999366760    0.8701602816581726 Ir
   0.8135815858840942    0.5481465458869934    0.5328999757766724 Ir
   0.3137811422348022    0.5823709368705750    0.6680475473403931 Ir
   0.3141201436519623    0.9822811484336853    0.2649792730808258 Ir
   0.3138767480850220    0.8856192231178284    0.8676263689994812 Os
   0.3138220310211182    0.0823020860552788    0.6681419610977173 Os
   0.8136215806007385    0.7487438917160034    0.3302629292011261 Os
   0.8138164281845093    0.8492736816406250    0.7345451116561890 Os
   0.8137790560722351    0.0486064627766609    0.5322155356407166 Os
   0.3138588666915894    0.4810395538806915    0.2662800252437592 Os
   0.3139759302139282    0.2819260060787201    0.4632105529308319 Os
   0.8139493465423584    0.1482863426208496    0.9377233982086182 Os
   0.3138727545738220    0.1799758225679398    0.0674901455640793 Os
   0.8138740658760071    0.4510754048824310    0.1328525394201279 Os
   0.8136066198348999    0.9474004507064819    0.1334830969572067 Os
   0.8139122128486633    0.3481089770793915    0.7348483204841614 Os
   0.8134459257125854    0.2463648766279221    0.3307939767837524 Os
   0.3139311969280243    0.7819599509239197    0.4666317999362946 Os
   0.8137920498847961    0.6514986157417297    0.9403657913208008 W
