Ir3 Os9
1.0
   3.8057777881622314    0.0000000000000000   -0.6290502548217769
  -0.1068850757552500    3.8027891959204414   -0.6316491365432741
   0.0000000000000000    0.0000000000000000   11.8837928771972656
Ir Os
3 9
direct
   0.9250934123992921    0.0159823037683964    0.8436376452445983 Ir
   0.1750138401985168    0.7654302716255188    0.3432196974754333 Ir
   0.0906600952148438    0.1808100640773773    0.1737935543060303 Ir
   0.4244587123394012    0.5146888494491577    0.8417434692382811 Os
   0.3397167325019836    0.9302636981010437    0.6731897592544556 Os
   0.5917761325836182    0.6819280385971069    0.1765501946210861 Os
   0.2566603720188141    0.3470781445503235    0.5069568753242493 Os
   0.0083598541095853    0.5985380411148072    0.0100645525380969 Os
   0.8416205048561096    0.4320846796035767    0.6765454411506653 Os
   0.5070850253105164    0.0976224243640900    0.0075135398656130 Os
   0.6742156744003296    0.2652502954006196    0.3432715833187103 Os
   0.7598727345466614    0.8501169085502625    0.5119476318359375 Os
