Ir6 Os8 Ru2
1.0
   5.4519362449645996    0.0000000000000000   -0.0012246903497729
   0.0004046221720351    5.4508051722074597   -0.0055929529480631
   0.0000000000000000    0.0000000000000000    7.7432298660278320
Ir Os Ru
6 8 2
direct
   0.4864335954189301    0.0755144581198692    0.1905123889446259 Ir
   0.9881497025489807    0.5751756429672241    0.6888904571533203 Ir
   0.4865243136882782    0.0758900716900826    0.6887648701667786 Ir
   0.7380307912826538    0.8253881335258485    0.9407650828361511 Ir
   0.4868040382862091    0.5747274160385132    0.6891900300979614 Ir
   0.9879680871963501    0.0756130516529083    0.1903109550476074 Ir
   0.9879308938980103    0.0762226954102516    0.6891974806785583 Os
   0.4861608147621155    0.5743945837020874    0.1899760663509369 Os
   0.7382603883743286    0.3257504701614380    0.4393043518066406 Os
   0.2368294298648834    0.3262490630149842    0.4393128156661987 Os
   0.2361149489879608    0.3259138166904449    0.9408059716224670 Os
   0.7380535006523132    0.3265535235404969    0.9405630826950073 Os
   0.9868817925453186    0.5749130845069885    0.1903114616870880 Os
   0.2356480211019516    0.8249247074127198    0.4387656450271606 Os
   0.7382575273513794    0.8241657018661499    0.4386041760444641 Ru
   0.2363907247781754    0.8238719701766968    0.9405179619789124 Ru
