Ir2 Os4
1.0
   2.7120542526245117    0.0000000000000000   -0.5233481526374817
  -0.0013729069814421    4.3791997664819231   -0.0017657353309919
   0.0000000000000000    0.0000000000000000    7.2978000640869141
Ir Os
2 4
direct
   0.5091937184333801    0.3534555733203888    0.0726060345768929 Ir
   0.1787087917327881    0.3538460135459900    0.4114605188369751 Ir
   0.8432882428169250    0.3537764847278595    0.7404403090476990 Os
   0.0666498765349388    0.8535003662109375    0.1863893270492554 Os
   0.3997580409049988    0.8536410331726074    0.8529059290885925 Os
   0.7333531975746155    0.8539529442787170    0.5203076601028442 Os
