Ir5 Os11
1.0
   5.4800968170166025    0.0000000000000000   -0.0083334650844350
  -2.7477791808043155    4.7402182304179563   -0.0061875637620687
   0.0000000000000000    0.0000000000000000    8.8126955032348633
Ir Os
5 11
direct
   0.6695609092712402    0.6124883294105530    0.0839432552456856 Ir
   0.1703141778707504    0.6122491955757141    0.0825464203953743 Ir
   0.5021324157714844    0.2777943313121796    0.3350699245929718 Ir
   0.6694226264953613    0.1118664145469666    0.0818695724010468 Ir
   0.0024423599243164    0.2771787643432617    0.3342309594154358 Ir
   0.3353943526744843    0.9444730877876282    0.8333725333213806 Os
   0.1691224277019501    0.1107202470302582    0.0803650394082069 Os
   0.6693483591079712    0.1107046008110046    0.5857402682304382 Os
   0.8362199068069458    0.9449071288108826    0.8341321349143982 Os
   0.1695590913295746    0.6118163466453552    0.5847058892250061 Os
   0.1681423783302307    0.1107897162437439    0.5860887169837952 Os
   0.5031298995018004    0.7788830995559691    0.3353338241577148 Os
   0.0033395164646207    0.7805947661399840    0.3335468471050262 Os
   0.8364898562431335    0.4455840885639191    0.8323946595191956 Os
   0.3357045352458954    0.4436833262443542    0.8316252231597900 Os
   0.6695588827133179    0.6122242212295532    0.5851193666458130 Os
