Ir9 Os1 W5
1.0
   3.9175083637237544    0.0000000000000000    0.0009310335153715
  -0.0005876227266482    3.9378501930489209    0.0008236746070895
   0.0000000000000000    0.0000000000000000   15.2099151611328125
Ir Os W
9 1 5
direct
   0.6118236780166626    0.8440216183662413    0.2870946526527405 Ir
   0.1124970316886902    0.8442246317863463    0.1596280932426453 Ir
   0.1120193675160408    0.8436556458473206    0.4144338965415955 Ir
   0.1122527420520782    0.8440337777137756    0.9034684300422668 Ir
   0.1119705513119698    0.3442443013191223    0.5469535589218140 Ir
   0.6114615797996521    0.3441657423973083    0.4196320474147797 Ir
   0.1126162409782410    0.3440966308116913    0.7675978541374207 Ir
   0.6125759482383728    0.3441433012485504    0.8986877202987671 Ir
   0.6124896407127380    0.8441121578216553    0.0326610580086708 Ir
   0.6119269132614136    0.8441975116729736    0.5444042086601257 Os
   0.6124741435050964    0.8441447615623474    0.7782980203628540 W
   0.1121654808521271    0.3441131114959717    0.2921759188175201 W
   0.1123466789722443    0.3437936902046204    0.0252437517046928 W
   0.1125401332974434    0.8444936275482178    0.6536465883255005 W
   0.6122357845306396    0.3443015515804290    0.1598285138607025 W
