Re4 Os11
1.0
   5.4901156425476074    0.0000000000000000   -0.0019459878094492
  -2.7332678899856973    4.7706974425892970   -0.0113799665123228
   0.0000000000000000    0.0000000000000000    8.7762384414672852
Re Os
4 11
direct
   0.4270974695682527    0.9533213973045350    0.9393537640571594 Re
   0.2607698440551758    0.6220071315765382    0.4449047446250916 Re
   0.5968676805496216    0.2862294018268585    0.1926760524511337 Re
   0.5988848209381104    0.2926182150840759    0.6890177130699158 Re
   0.9298117160797119    0.9521494507789613    0.9409534335136414 Os
   0.5961530208587648    0.7864116430282594    0.1909654438495636 Os
   0.2639031112194061    0.1193075105547905    0.4420308172702789 Os
   0.7658669948577881    0.6211147308349610    0.4428805112838745 Os
   0.5983278751373291    0.7876760959625244    0.6921686530113220 Os
   0.0954180508852005    0.7864784002304077    0.1907178461551666 Os
   0.9304966330528259    0.4529702961444855    0.9406282305717468 Os
   0.4295492768287659    0.4531036317348480    0.9383286833763123 Os
   0.7630180716514587    0.1188291534781456    0.4446383118629456 Os
   0.0955796465277672    0.2853009402751923    0.1908245980739594 Os
   0.0952861085534096    0.2856314480304718    0.6926294565200806 Os
