Re2 Os9 W3
1.0
   4.3416609764099121    0.0000000000000000   -0.0021506780758498
  -2.1783130092080683    6.2140336217896550   -1.5277901887893675
   0.0000000000000000    0.0000000000000000    8.0072727203369141
Re Os W
2 9 3
direct
   0.9454960227012634    0.4786147773265839    0.2016016989946365 Re
   0.3638900220394135    0.3194419443607330    0.0074412631802261 Re
   0.9056801199913025    0.4048743844032287    0.8503644466400146 Os
   0.7696501016616821    0.1289494037628174    0.3693177700042725 Os
   0.5285679697990417    0.6466597914695739    0.8243153095245361 Os
   0.4028122723102570    0.3940532207489014    0.3555707037448883 Os
   0.9658885002136230    0.5197609663009644    0.5699389576911926 Os
   0.5677666068077087    0.7266115546226501    0.1897485554218292 Os
   0.7346894145011902    0.0601499043405056    0.0033780890516937 Os
   0.1461289674043655    0.8847838640213012    0.8079750537872314 Os
   0.1325487196445465    0.8553267717361449    0.4425656795501709 Os
   0.1872556209564209    0.9625239372253418    0.1579345017671585 W
   0.6922823786735535    0.9746412038803099    0.6530431509017944 W
   0.3320791721343994    0.2520042955875397    0.6338922977447510 W
