Mo2 Ir11 Os2
1.0
   3.8594059944152832    0.0000000000000000    0.0007709204219279
  -0.0008628516098020    3.8668216696302986    0.0011231931857766
   0.0000000000000000    0.0000000000000000   15.3288955688476562
Mo Ir Os
2 11 2
direct
   0.3865617811679840    0.1389410495758057    0.2006256282329560 Mo
   0.8865150213241577    0.6391090750694275    0.2032430619001389 Mo
   0.8864578604698181    0.1387173086404800    0.8414922952651979 Ir
   0.3862431645393372    0.6388026475906373    0.5827532410621643 Ir
   0.3864502310752869    0.6389185190200806    0.3312753736972809 Ir
   0.3860717117786407    0.6388317346572876    0.8390471339225770 Ir
   0.8861439824104309    0.1390027254819870    0.0822696685791016 Ir
   0.8862595558166504    0.6389196515083314    0.7099242806434632 Ir
   0.3864910006523132    0.1388745456933975    0.7120793461799623 Ir
   0.8865470290184021    0.1386784017086029    0.3319646716117859 Ir
   0.8863813877105713    0.6388446688652039    0.9645822048187257 Ir
   0.3864426612854004    0.1388713419437408    0.9642860889434816 Ir
   0.8862262964248657    0.6384989619255066    0.4610023796558381 Ir
   0.8863713741302490    0.1389283984899521    0.5827162265777588 Os
   0.3864161670207977    0.1386267095804214    0.4610444605350495 Os
