Re1 Ir2 Os13
1.0
   5.4904947280883789    0.0000000000000000   -0.0010062340879812
  -2.7504911263489187    4.7528445724243813   -0.0030226111412055
   0.0000000000000000    0.0000000000000000    8.8211545944213867
Re Ir Os
1 2 13
direct
   0.9864332079887389    0.3861698508262634    0.3066581189632416 Re
   0.9855853319168090    0.8867114782333374    0.3062439560890198 Ir
   0.8183164000511168    0.5528761148452759    0.8058511018753052 Ir
   0.4857817292213439    0.8851031064987183    0.3062712550163269 Os
   0.1529276371002197    0.2197084575891494    0.5570123195648193 Os
   0.1537593156099319    0.7205561399459839    0.0562003962695599 Os
   0.6513749361038208    0.2188900113105774    0.0561983957886696 Os
   0.3197149038314819    0.5540782213211060    0.8058924674987793 Os
   0.6521317958831787    0.7200097441673279    0.0560300499200821 Os
   0.4859980344772338    0.3883587718009949    0.3064363300800323 Os
   0.1532800942659378    0.2201665192842484    0.0561448410153389 Os
   0.8178796768188475    0.0524634569883347    0.8063773512840271 Os
   0.6517205238342285    0.2187951207160949    0.5562686324119568 Os
   0.1539929658174515    0.7207003831863403    0.5563480257987976 Os
   0.6514914631843567    0.7201519012451172    0.5563647150993347 Os
   0.3199014067649841    0.0523832440376282    0.8062632679939270 Os
