Ir6 W4
1.0
   4.5488967895507804    0.0000000000000000    1.6444172859191897
   2.2519693660427729    4.7338349945479541    0.8245517015457160
   0.0000000000000000    0.0000000000000000    7.0973448753356934
Ir W
6 4
direct
   0.8847858905792239    0.9352161884307860    0.9907627105712892 Ir
   0.9824417233467103    0.1384682655334473    0.5927813649177551 Ir
   0.4541863501071930    0.0362961813807487    0.7917754054069519 Ir
   0.3333333333333333    0.4359435141086579    0.0921911671757698 Ir
   0.7056183218955994    0.5373033285140991    0.2907091379165649 Ir
   0.0337696820497513    0.6392948031425476    0.4907878339290619 Ir
   0.4154598116874695    0.6015310883522034    0.6890347003936768 W
   0.5640047788619995    0.1019416153430939    0.3935039043426514 W
   0.8781694769859314    0.4723750352859497    0.8926216959953308 W
   0.2289180904626845    0.9728199839591981    0.1895756125450134 W
