Ir4 Os14
1.0
   5.3761200904846191    0.0000000000000000   -0.0579787269234652
  -2.5539479240705978    4.6742427432353262   -0.6685835123062139
   0.0000000000000000    0.0000000000000000   10.7566375732421875
Ir Os
4 14
direct
   0.1810493618249893    0.9804990291595459    0.3834422826766968 Ir
   0.2512151896953583    0.6056624650955200    0.7907881736755371 Ir
   0.8855949044227599    0.3722966313362122    0.5736156105995178 Ir
   0.6215903759002686    0.8595427870750428    0.0175204779952765 Ir
   0.7534981369972229    0.1080941036343575    0.7917065024375916 Os
   0.1221226751804352    0.3642893433570862    0.0369480364024639 Os
   0.6140099167823792    0.3472023904323578    0.9815303087234497 Os
   0.1708254516124725    0.4597702324390411    0.3220853805541992 Os
   0.4030267894268036    0.1571239382028580    0.1820124983787537 Os
   0.6793112754821777    0.4798004031181336    0.3853936195373535 Os
   0.2513766884803772    0.1100773438811302    0.7818628549575806 Os
   0.6743930578231812    0.9672052860260010    0.3486742377281189 Os
   0.8891501426696776    0.6716035604476930    0.1814941167831421 Os
   0.1132014095783234    0.8461553454399110    0.9801613688468933 Os
   0.3787013888359070    0.3803628683090210    0.5752763152122498 Os
   0.7499525547027588    0.6077863574028015    0.7798279523849487 Os
   0.3841899633407593    0.8686931729316711    0.5719346404075623 Os
   0.8773146867752074    0.8796468973159790    0.5765135288238525 Os
