Re6 Ir4
1.0
   3.7420186996459961    0.0000000000000000   -1.0363042354583745
  -0.2706084942488982    5.4198442599772640   -0.9856185317039488
   0.0000000000000000    0.0000000000000000    7.2861933708190918
Re Ir
6 4
direct
   0.1369974166154861    0.9702230691909790    0.4826706647872925 Re
   0.7362211346626282    0.2687975168228149    0.6815185546875000 Re
   0.5369403958320618    0.1700030714273453    0.2834012508392334 Re
   0.9358263015747070    0.3681380152702332    0.0804388970136642 Re
   0.7360967993736267    0.7688764929771422    0.6815937757492065 Re
   0.3356756567955017    0.5674362778663635    0.8804442882537842 Re
   0.3364060223102570    0.0684427917003632    0.8817812204360962 Ir
   0.5354085564613342    0.6679083108901978    0.2799072563648224 Ir
   0.9369991421699524    0.8704716563224792    0.0834578573703766 Ir
   0.1362986266613007    0.4693422615528106    0.4814499318599701 Ir
