Re4 Ir7
1.0
   3.8362524509429932    0.0000000000000000   -0.6468576192855834
  -0.1110438469151972    3.8356069262495800   -0.6489124894142151
   0.0000000000000000    0.0000000000000000   11.6535596847534180
Re Ir
4 7
direct
   0.3100997507572174    0.6000184416770935    0.0104036666452885 Re
   0.9794275760650634    0.2701836526393890    0.3506519198417664 Re
   0.3975458443164825    0.1882996559143067    0.1868913471698761 Re
   0.7229748368263244    0.5138746500015259    0.8368978500366211 Re
   0.2247082293033600    0.0158346313983202    0.8408681154251099 Ir
   0.1398829817771912    0.4299702346324921    0.6708417534828186 Ir
   0.8091491460800170    0.0989837422966957    0.0086472574621439 Ir
   0.0586593151092529    0.8493294119834900    0.5098145604133606 Ir
   0.4792127311229705    0.7694369554519653    0.3501139581203461 Ir
   0.6397886276245116    0.9309347867965698    0.6716552972793579 Ir
   0.8945914506912230    0.6854110956192017    0.1811546087265015 Ir
