Ir4 Os1 Ru1 W4
1.0
   3.9020330905914311    0.0000000000000000   -0.0022859601303933
   1.9463622750831751    4.4037204806461272   -0.0125755658373239
   0.0000000000000000    0.0000000000000000    8.7677927017211914
Ir Os Ru W
4 1 1 4
direct
   0.8373169302940368    0.6666666666666666    0.0897683203220367 Ir
   0.5379888415336609    0.2660433650016785    0.9916301369667053 Ir
   0.6377132534980774    0.0658499002456665    0.6920215487480164 Ir
   0.4414064586162566    0.4591968953609467    0.2911099791526794 Ir
   0.3391144573688507    0.6635184288024902    0.5884017944335938 Os
   0.9370411038398740    0.4675433635711669    0.7878679633140564 Ru
   0.1343265175819397    0.0720851942896843    0.1821809858083725 W
   0.2433727085590363    0.8544948697090148    0.8871784210205078 W
   0.0381431728601456    0.2661797702312469    0.4981467425823212 W
   0.7437168955802917    0.8535776138305664    0.3913715183734894 W
