Ir1 Os7
1.0
   4.3727583885192871    0.0000000000000000   -0.0004281566361892
   0.0001261438443014    4.7779746038951343   -2.7601830959320073
   0.0000000000000000    0.0000000000000000    5.5198473930358887
Ir Os
1 7
direct
   0.0097144171595573    0.7599251270294189    0.6519555449485779 Ir
   0.0096016917377710    0.2589421868324280    0.1528210639953613 Os
   0.5097457766532898    0.9269700646400451    0.4848401248455046 Os
   0.5098038315773010    0.4253151416778564    0.4846955835819244 Os
   0.0093780327588320    0.2591846883296967    0.6509132385253906 Os
   0.5098849534988403    0.4264778494834900    0.9853826165199280 Os
   0.0092993387952447    0.7612032294273376    0.1528129279613494 Os
   0.5098137855529785    0.9272825717926027    0.9862167835235596 Os
