Ir1 Os3
1.0
   2.6606326103210449    0.0000000000000000   -0.7353534102439880
  -0.6139998615726650    4.2027921610042824   -2.2208702564239493
   0.0000000000000000    0.0000000000000000    5.1687750816345215
Ir Os
1 3
direct
   0.2965199649333954    0.3044832944869995    0.7702287435531616 Ir
   0.7971696853637695    0.8014553189277649    0.7702414989471436 Os
   0.5449926853179932    0.2172033190727234    0.2670243680477142 Os
   0.0487620420753956    0.7205796837806702    0.2736405134201049 Os
