Ir2 Os2
1.0
   2.6599457263946538    0.0000000000000000   -0.7308630347251890
  -0.6001948599031551    4.1945621301731615   -2.1906759738922119
   0.0000000000000000    0.0000000000000000    5.1917467117309570
Ir Os
2 2
direct
   0.4844940602779388    0.7689852118492126    0.5719336271286011 Ir
   0.9845112562179565    0.2697224020957946    0.5721464753150940 Ir
   0.7341563701629638    0.3527796268463134    0.0715392082929611 Os
   0.2344941794872284    0.8535512685775757    0.0721244066953659 Os
