Ir2 Os7
1.0
   3.6553711891174316    0.0000000000000000    1.2020007371902468
   1.8137821235669398    5.7882988885952580    0.5941957235336304
   0.0000000000000000    0.0000000000000000    6.0940804481506348
Ir Os
2 7
direct
   0.7726013064384460    0.9451215267181395    0.2907516360282898 Ir
   0.1028457432985306    0.2837827801704407    0.2906256020069122 Ir
   0.1047822982072830    0.6144536733627319    0.9560427665710449 Os
   0.4377540946006775    0.6146153211593628    0.2908510267734528 Os
   0.7721990346908569    0.2819193303585052    0.9543982744216919 Os
   0.1036482304334641    0.9470762610435487    0.6263375282287598 Os
   0.7706745862960815    0.6145319342613220    0.6252198219299316 Os
   0.4363840818405151    0.2818361520767212    0.6265935897827148 Os
   0.4392122924327851    0.9471196532249451    0.9544777274131775 Os
