Ir2 Os6
1.0
   4.3615589141845712    0.0000000000000000   -0.0003334711364015
   0.0003443906972124    4.7790684575924267   -0.0009749816381368
   0.0000000000000000    0.0000000000000000    5.5122900009155273
Ir Os
2 6
direct
   0.5425870418548584    0.7172805666923523    0.9085932374000549 Ir
   0.0425154231488705    0.3887082040309906    0.4087474644184113 Ir
   0.0426337234675884    0.3833580911159515    0.9087817072868347 Os
   0.5424554347991943    0.2192788720130921    0.6578804850578308 Os
   0.0425941869616508    0.8864637017250061    0.1580354422330856 Os
   0.5424799919128418    0.2193913310766220    0.1590832769870758 Os
   0.0427544191479683    0.8866147994995117    0.6594799160957336 Os
   0.5426191687583923    0.7225465178489685    0.4086393117904663 Os
