Ir4 Os12
1.0
   5.4908738136291504    0.0000000000000000    0.0024393170606343
  -2.7564155629903566    4.7477245633544802   -0.0097233233973384
   0.0000000000000000    0.0000000000000000    8.8151817321777344
Ir Os
4 12
direct
   0.7804543375968933    0.4247219562530518    0.5274603366851807 Ir
   0.4474386274814605    0.7585684061050415    0.2778540849685669 Ir
   0.2806238830089569    0.9247010946273804    0.5274912714958191 Ir
   0.1143305003643036    0.0912284702062607    0.7767180800437927 Ir
   0.2809725403785706    0.4250398576259613    0.5275574326515198 Os
   0.7808649539947510    0.9247434139251710    0.0275956168770790 Os
   0.6136986613273621    0.5915623903274536    0.7778200507164001 Os
   0.2807779312133789    0.4247864186763763    0.0271302945911884 Os
   0.6139953732490540    0.0905524566769600    0.7787345051765442 Os
   0.4467139542102813    0.2584463655948639    0.2761080861091614 Os
   0.9479312896728515    0.2575507760047913    0.2768248915672302 Os
   0.7808046340942383    0.4246972501277924    0.0276619996875525 Os
   0.9470511674880980    0.7589007616043092    0.2769401669502258 Os
   0.7804977297782898    0.9246771335601808    0.5272567868232727 Os
   0.2805017828941346    0.9246529340744020    0.0273019708693027 Os
   0.1144244521856308    0.5913277864456177    0.7780402898788452 Os
