Os5
1.0
   2.7398204803466797    0.0000000000000000   -0.0008738070609977
  -1.3677337748523755    2.3704027810028618    0.0012258887290953
   0.0000000000000000    0.0000000000000000   11.0346775054931641
Os
5
direct
   0.3796159923076630    0.1363075971603394    0.8522917628288269 Os
   0.0461313501000404    0.4695306718349457    0.2539681494235992 Os
   0.7125620245933533    0.8029791116714478    0.0513793639838696 Os
   0.7129872441291809    0.8030284047126770    0.6558320522308350 Os
   0.3798765242099762    0.1363724768161774    0.4558404088020325 Os
