Re9 Os6
1.0
   4.9608664512634277    0.0000000000000000    1.7224031686782841
   1.0111494220790718    5.1257728172793646    1.6964981555938710
   0.0000000000000000    0.0000000000000000    9.1744270324707031
Re Os
9 6
direct
   0.2015614956617355    0.9069259762763978    0.9137912988662720 Re
   0.8641561269760132    0.1165392845869064    0.1691455394029617 Re
   0.5771319866180420    0.9444189667701720    0.6497289538383484 Re
   0.4594795405864716    0.8550230860710144    0.3934835493564606 Re
   0.8665419816970825    0.6131238937377930    0.1703443080186844 Re
   0.0831979885697365    0.3076674044132233    0.6840683221817017 Re
   0.5675268173217773    0.4402817785739899    0.6595940589904785 Re
   0.6827382445335388    0.0365317724645138    0.9166558980941772 Re
   0.9756449460983277    0.2042161822319031    0.4382785856723785 Re
   0.6966682076454163    0.5344896912574768    0.9176951050758362 Os
   0.3367567062377930    0.2589855492115021    0.1461279094219208 Os
   0.9736478328704835    0.7026932835578918    0.4361000359058380 Os
   0.0868128836154938    0.7967184185981750    0.6852561831474304 Os
   0.4575725495815278    0.3505282402038574    0.3970355689525604 Os
   0.3427277505397797    0.7483609318733215    0.1607781797647476 Os
