Ir4 Os12
1.0
   5.4900841712951660    0.0000000000000000   -0.0002567918272690
  -2.7416182404680716    4.7537500791379053   -0.0008081549312923
   0.0000000000000000    0.0000000000000000    8.8093233108520508
Ir Os
4 12
direct
   0.0833880454301834    0.6401168107986450    0.4529186487197876 Ir
   0.4157780706882477    0.8058580756187439    0.7054291963577271 Ir
   0.7488213777542114    0.4721343815326690    0.9527567625045776 Ir
   0.4173743426799774    0.3073875606060028    0.2053283900022507 Ir
   0.5836685895919800    0.1389023810625076    0.4545598626136780 Os
   0.4165659546852112    0.8063011765480042    0.2020593285560608 Os
   0.5835841298103333    0.6407751441001892    0.4540808796882629 Os
   0.9160576462745667    0.3044855296611786    0.7038604021072388 Os
   0.0824990198016167    0.1391313672065735    0.4544649720191956 Os
   0.2489742338657379    0.9736630916595459    0.9536237716674805 Os
   0.9163484573364258    0.8080387711524963    0.7036000490188599 Os
   0.7502465844154358    0.9733421802520751    0.9544504880905151 Os
   0.2486977577209473    0.4715290963649749    0.9536585807800293 Os
   0.9165451526641846    0.8080096840858459    0.2036011070013046 Os
   0.4154856801033020    0.3061786293983459    0.7018696069717407 Os
   0.9157723188400269    0.3044549524784088    0.2038393616676331 Os
