Re4 Ir4 Os2
1.0
   2.8076975345611572    0.0000000000000000    0.0021751166786996
   0.0052784879158079    7.4572229777356283    0.0078990682959555
   0.0000000000000000    0.0000000000000000    7.4538407325744629
Re Ir Os
4 4 2
direct
   0.4589108526706696    0.9366264343261720    0.5446773767471313 Re
   0.4593502879142761    0.4344948530197144    0.6967079639434814 Re
   0.4584554731845856    0.5869035124778748    0.1956052333116531 Re
   0.4580383002758026    0.0869087949395180    0.0463658943772316 Re
   0.9592641592025757    0.8885126709938049    0.2436155229806900 Ir
   0.9590730667114258    0.3888073861598969    0.9984351992607117 Ir
   0.9589437246322632    0.1338513642549515    0.7437960505485535 Ir
   0.9585816264152527    0.6341391205787659    0.4985189437866211 Ir
   0.9589952826499939    0.7608706951141357    0.8708443045616150 Os
   0.9588033556938171    0.2606557011604309    0.3711382746696472 Os
