Ir2 Os2
1.0
   2.7451715469360352    0.0000000000000000   -0.0002750099520206
   0.0010382665005801    4.3736923892756812   -0.0014058446977287
   0.0000000000000000    0.0000000000000000    4.7910823822021484
Ir Os
2 2
direct
   0.0108620189130306    0.0543143190443516    0.0236023813486099 Ir
   0.0103069031611085    0.5542767047882080    0.3558996319770813 Ir
   0.5106744766235352    0.0544161386787891    0.5262032747268677 Os
   0.5105024576187134    0.5544104576110840    0.8533012866973877 Os
