Ir11 Os9
1.0
   4.3781962394714355    0.0000000000000000    0.0002299760817545
  -0.0022407268136960    5.4825492094640635   -0.6350024342536927
   0.0000000000000000    0.0000000000000000   11.9918737411499023
Ir Os
11 9
direct
   0.7449932098388672    0.3571546673774719    0.2068365365266800 Ir
   0.2452322244644165    0.0263001620769501    0.8755488395690917 Ir
   0.2449616342782974    0.8236934542655945    0.0753995329141617 Ir
   0.7450197935104370    0.7603643536567688    0.8087497949600220 Ir
   0.7447683811187744    0.4551727771759033    0.6076577305793762 Ir
   0.2453088462352753    0.9236248135566711    0.4759400486946105 Ir
   0.2447634786367416    0.1261184066534042    0.2773158848285675 Ir
   0.2451158165931702    0.7206350564956665    0.6755890846252441 Ir
   0.2454334050416946    0.3274140059947968    0.0751929432153702 Ir
   0.7453062534332275    0.5588522553443909    0.0078226514160633 Ir
   0.7446411252021790    0.1537283062934875    0.4091733694076538 Ir
   0.7459394931793213    0.6563125848770142    0.4082836210727692 Os
   0.2446685135364532    0.5228205919265747    0.8736293911933898 Os
   0.7450643181800842    0.0587192401289940    0.0087788132950664 Os
   0.2448929101228714    0.6243731379508972    0.2757976651191711 Os
   0.7451419234275818    0.9569309353828430    0.6095348596572876 Os
   0.2449806779623032    0.4239802062511444    0.4747728407382965 Os
   0.2450475990772247    0.2232065647840500    0.6763578653335571 Os
   0.7455773949623108    0.8574655652046204    0.2100491374731064 Os
   0.7448776364326477    0.2581691741943359    0.8083223700523376 Os
