Re3 Ir2 Os11
1.0
   5.5114221572875977    0.0000000000000000   -0.0016151783056562
  -2.7547819983945492    4.7680368850780086    0.0011262132320548
   0.0000000000000000    0.0000000000000000    8.8526782989501953
Re Ir Os
3 2 11
direct
   0.7680686116218567    0.4260049760341644    0.3049788773059845 Re
   0.1006674468517303    0.0919036418199539    0.5545539259910583 Re
   0.4345670938491821    0.7590802311897278    0.0551170408725739 Re
   0.9334884285926819    0.7584449648857118    0.0546474196016788 Ir
   0.6017233729362488    0.0937825441360474    0.5549601316452026 Ir
   0.0993006974458694    0.5915248990058899    0.5553975701332092 Os
   0.2679308354854584    0.9258636832237244    0.8053460121154785 Os
   0.4358919560909271    0.2599346637725830    0.0548166446387768 Os
   0.7676344513893127    0.9259837865829469    0.8047552704811096 Os
   0.2678124010562897    0.4252936244010925    0.3051738440990448 Os
   0.7675303816795349    0.4260268211364746    0.8047057986259460 Os
   0.9332182407379150    0.2597075402736664    0.0543580912053585 Os
   0.2672660350799562    0.9250934720039369    0.3046457469463348 Os
   0.6018994450569153    0.5923365950584412    0.5548551678657532 Os
   0.7678468227386475    0.9262754917144775    0.3048786520957947 Os
   0.2678287327289582    0.4258998632431031    0.8045978546142578 Os
