Ir3 Os9
1.0
   4.3562521934509277    0.0000000000000000   -0.0010107593843726
  -0.0014395839342071    4.7778117872116361    0.0020325493533160
   0.0000000000000000    0.0000000000000000    8.2870635986328125
Ir Os
3 9
direct
   0.2042797207832336    0.1188787817955017    0.8268056511878967 Ir
   0.7044410109519958    0.7889842391014099    0.1596051752567291 Ir
   0.2044131606817245    0.1189844086766243    0.4919807314872742 Ir
   0.2045527994632721    0.6197692155838013    0.9929574728012085 Os
   0.7042858004570007    0.2864813804626465    0.6593564152717590 Os
   0.2044913023710251    0.6177257299423218    0.6593583822250366 Os
   0.7044281363487244    0.2873697876930237    0.3260938525199890 Os
   0.7042348980903625    0.7842800021171570    0.8245406746864319 Os
   0.2045851051807404    0.6194227337837220    0.3260284066200256 Os
   0.2045356035232544    0.1240221560001373    0.1594651490449905 Os
   0.7044044137001038    0.7840402722358705    0.4940165281295776 Os
   0.7042674422264099    0.2874520123004913    0.9923501610755920 Os
