Re4 Ir7
1.0
   4.7540388107299814    0.0000000000000000    0.0143028562888507
   0.8074973636099529    4.6741075422399430    0.5240005850791933
   0.0000000000000000    0.0000000000000000    7.2765970230102539
Re Ir
4 7
direct
   0.6978651285171509    0.6535202264785767    0.5026592016220093 Re
   0.1562039554119110    0.9209131002426147    0.4137741029262543 Re
   0.9696855545043946    0.0173697974532843    0.0472041890025139 Re
   0.4279283583164215    0.2833011150360107    0.9586880207061769 Re
   0.8829758167266846    0.5569325685501099    0.8678945302963258 Ir
   0.5153748989105225    0.7430641651153564    0.1403805464506149 Ir
   0.7894522547721863    0.1041487678885460    0.6851728558540344 Ir
   0.3370801806449890    0.8326942920684814    0.7764017581939697 Ir
   0.6107892394065857    0.1938166171312332    0.3209504485130310 Ir
   0.2433094829320908    0.3813760280609131    0.5937092900276184 Ir
   0.0624127648770809    0.4692829847335815    0.2307664006948471 Ir
