Ir4 Os12
1.0
   5.3928556442260742    0.0000000000000000   -0.8167700767517085
  -2.6303255624560515    4.7035088585026648    0.8166562914848319
   0.0000000000000000    0.0000000000000000    9.0353918075561523
Ir Os
4 12
direct
   0.4718577265739441    0.1904149502515793    0.1903118789196014 Ir
   0.5972602367401123    0.5665615200996399    0.9392190575599670 Ir
   0.7227034568786621    0.4416733682155609    0.6884092092514038 Ir
   0.5967589616775513    0.0654730200767517    0.9392728209495544 Ir
   0.3465629816055298    0.8155227899551392    0.4393489658832550 Os
   0.2208012044429779    0.9401470422744751    0.6896960139274597 Os
   0.0980640575289726    0.5663734674453735    0.9411491155624390 Os
   0.7228080630302429    0.9413832426071167    0.6892749071121216 Os
   0.4709414839744568    0.6903640031814575    0.1893113106489182 Os
   0.8476423025131226    0.8165745139122009    0.4393230378627777 Os
   0.0960076525807381    0.0657551884651184    0.9373394250869751 Os
   0.3459349870681763    0.3162432909011841    0.4383096694946289 Os
   0.2212284803390503    0.4409275949001312    0.6886944174766541 Os
   0.8483239412307739    0.3157550990581512    0.4403973817825317 Os
   0.9729545116424561    0.6912537813186646    0.1886865645647049 Os
   0.9729434251785278    0.1907532215118408    0.1898606568574905 Os
