Ir1 Os11
1.0
   2.7567784786224365    0.0000000000000000    0.0019447335507720
   0.0042131848949018    4.3624347368726646    0.0022307939361779
   0.0000000000000000    0.0000000000000000   14.3088493347167969
Ir Os
1 11
direct
   0.8674615621566772    0.9222148060798644    0.9845545291900635 Ir
   0.3686316907405853    0.4218870401382446    0.5974774360656738 Os
   0.8684731125831604    0.9220284819602966    0.6523233652114868 Os
   0.3672602176666260    0.4220473170280456    0.9296694993972778 Os
   0.8691204786300659    0.4218275249004364    0.4300887286663055 Os
   0.3678752183914185    0.4220758378505707    0.2642584741115570 Os
   0.3683883845806122    0.9218981862068176    0.8191259503364563 Os
   0.3696502149105072    0.9219815731048583    0.4852716922760010 Os
   0.8681744933128357    0.9220147728919984    0.3189101517200470 Os
   0.8675864338874817    0.4219415783882141    0.0966579839587212 Os
   0.3680463433265686    0.9220484495162964    0.1525402516126633 Os
   0.8689677715301514    0.4220518469810486    0.7625289559364319 Os
