Ir1 Os3
1.0
   2.7393825054168697    0.0000000000000000    0.0004570640157907
  -1.3675073358699661    2.3709958245125002   -0.0016478708712387
   0.0000000000000000    0.0000000000000000    8.8124809265136719
Ir Os
1 3
direct
   0.9058585166931152    0.2897510230541229    0.0875648930668831 Ir
   0.5719629526138306    0.6232883930206299    0.8346693515777588 Os
   0.9054120779037476    0.2897306382656097    0.5880733132362366 Os
   0.2394862771034240    0.9561530351638793    0.3409907519817352 Os
