Ir12 Os6
1.0
   4.7306995391845703    0.0000000000000000   -0.3468794226646422
  -1.5344994399544016    5.1986171358735582    0.7049723267555237
   0.0000000000000000    0.0000000000000000   10.5844163894653320
Ir Os
12 6
direct
   0.4435477554798127    0.6965446472167969    0.9874178171157838 Ir
   0.9958841204643251    0.8082768917083740    0.0981711149215698 Ir
   0.1080761104822159    0.0270485840737820    0.3192049562931061 Ir
   0.8785150051116944    0.5793955922126770    0.8751091361045839 Ir
   0.3233863711357117    0.4688004255294799    0.7624937891960145 Ir
   0.2176882028579712    0.2509889602661133    0.5425507426261902 Ir
   0.9903588294982911    0.3020744025707245    0.0957246199250221 Ir
   0.6589301824569702    0.1388897895812988    0.4304744601249695 Ir
   0.1098516583442688    0.5295575261116028    0.3190023899078369 Ir
   0.3326551616191864    0.9765654802322388    0.7643067836761476 Ir
   0.6620450615882874    0.6392506957054138    0.4315779805183411 Ir
   0.7736898660659790    0.8614732027053833    0.6533536314964294 Ir
   0.4396304786205292    0.1932742297649384    0.9879618287086488 Os
   0.2123390436172485    0.7474822998046875    0.5417087674140930 Os
   0.7783418297767639    0.3630693256855011    0.6541990637779236 Os
   0.8840533494949342    0.0854579880833626    0.8749739527702333 Os
   0.5502463579177856    0.4152841269969940    0.2088251262903214 Os
   0.5497832298278809    0.9178411364555359    0.2066293209791184 Os
