Os9 Ru3
1.0
   4.3352160453796387    0.0000000000000000   -0.0008937332895585
  -0.0016781825580518    4.7578966042167457   -0.0011623712489397
   0.0000000000000000    0.0000000000000000    8.2517871856689453
Os Ru
9 3
direct
   0.5206363201141357    0.6848645210266112    0.7299872636795044 Os
   0.5210027694702148    0.1831653267145157    0.8960022926330566 Os
   0.5206631422042847    0.1837992668151855    0.2284873723983765 Os
   0.0211093816906214    0.0189098790287971    0.3958359956741333 Os
   0.5210623145103455    0.6827442049980164    0.0621671900153160 Os
   0.0210501402616501    0.5167547464370726    0.2297660410404205 Os
   0.5210353732109070    0.6862649917602538    0.3951529562473297 Os
   0.0209500305354595    0.5192763209342957    0.5624517798423767 Os
   0.0210251398384571    0.0186103712767363    0.7294108867645264 Os
   0.0210918318480253    0.0165703129023314    0.0622817762196064 Ru
   0.5210666060447693    0.1862664222717285    0.5626114606857300 Ru
   0.0211039017885923    0.5163899660110474    0.8961240053176880 Ru
