Ir8 Os4
1.0
   3.8539211750030518    0.0000000000000000   -0.0054636327549814
  -0.0104548831950411    5.4530596645820921   -0.0286322403699162
   0.0000000000000000    0.0000000000000000    8.2074241638183594
Ir Os
8 4
direct
   0.1205538734793663    0.2297569215297699    0.7491414546966553 Ir
   0.1203934177756310    0.7322755455970764    0.0786442011594772 Ir
   0.6203367114067078    0.4818411171436310    0.9142463803291321 Ir
   0.6205311417579651    0.9809965491294861    0.5878287553787231 Ir
   0.6202486157417297    0.9826126098632811    0.2487855851650238 Ir
   0.6206755638122559    0.4784924089908600    0.2585749328136444 Ir
   0.1206255406141281    0.7287573218345642    0.4230598211288452 Ir
   0.1206979900598526    0.2281125932931900    0.0881803259253502 Ir
   0.6204989552497864    0.4801712334156036    0.5832104086875916 Os
   0.1204886883497238    0.7306131124496460    0.7541325092315674 Os
   0.6206324100494385    0.9779875278472899    0.9199070930480957 Os
   0.1204306930303574    0.2327095270156860    0.4172341525554657 Os
