Ir2 Os4
1.0
   2.7115993499755859    0.0000000000000000   -0.5214513540267950
   0.0023407427981887    4.3676999495554805    0.0012796173105016
   0.0000000000000000    0.0000000000000000    7.3111839294433594
Ir Os
2 4
direct
   0.8536401987075807    0.3145012855529786    0.9976109862327577 Ir
   0.6328539848327637    0.8143600821495056    0.5563853979110718 Ir
   0.1865286231040955    0.3143686652183533    0.6640594601631166 Os
   0.2996522486209869    0.8144866824150085    0.8898521661758424 Os
   0.5224263072013855    0.3144349753856659    0.3354116678237916 Os
   0.9641453027725221    0.8145490288734437    0.2184799909591675 Os
