Ir8 Os4
1.0
   4.3807597160339364    0.0000000000000000   -0.0019376548007129
  -0.0051901831051495    4.7690444360296871   -0.0038626985624435
   0.0000000000000000    0.0000000000000000    8.2671070098876953
Ir Os
8 4
direct
   0.9321026206016541    0.7689469456672668    0.0800730362534523 Ir
   0.4321903288364410    0.1002392917871475    0.7494975328445435 Ir
   0.4319565296173096    0.1076830923557281    0.0884900018572807 Ir
   0.9324566721916199    0.7766168117523193    0.4190096259117126 Ir
   0.4322886466979980    0.6077694892883301    0.5798424482345581 Ir
   0.9322663545608521    0.2691348791122437    0.5887767076492310 Ir
   0.4320991039276123    0.6002997159957886    0.9184355735778809 Ir
   0.9320373535156250    0.2765193581581116    0.2501045465469360 Ir
   0.9321890473365784    0.7687013745307922    0.7527216076850891 Os
   0.9319913983345032    0.2691808044910431    0.9153096079826355 Os
   0.4322315156459808    0.6078032851219176    0.2531335055828094 Os
   0.4322763085365295    0.1085050776600838    0.4160010516643524 Os
