Re2 Os12
1.0
   4.7934689521789551    0.0000000000000000   -0.0058024716563522
  -2.3991589322270377    5.9819127904800382   -0.5658215880393997
   0.0000000000000000    0.0000000000000000    7.0251708030700684
Re Os
2 12
direct
   0.1456124484539031    0.6321732997894286    0.1192977726459503 Re
   0.9082254767417908    0.4884462952613830    0.7604702711105346 Re
   0.3391717970371246    0.3464654982089996    0.9047402739524840 Os
   0.5745901465415955    0.4890830218791961    0.2613131999969482 Os
   0.4798078835010528    0.6315733194351196    0.6184385418891907 Os
   0.4298706054687500    0.2027668952941894    0.5456839203834534 Os
   0.6243247389793395    0.9172768592834472    0.3339457213878631 Os
   0.2894231975078583    0.9173740148544312    0.8316357135772704 Os
   0.7154108285903931    0.7743770480155945    0.9748702645301818 Os
   0.0493641011416912    0.7740737795829772    0.4751039445400237 Os
   0.1930251717567444    0.0595620721578598    0.1870952993631363 Os
   0.8606647849082947    0.0604052692651749    0.6916645169258117 Os
   0.7638565301895142    0.2024734616279602    0.0481601208448410 Os
   0.0039522191509604    0.3466136157512665    0.4044238626956939 Os
