Re1 Ir1 Os12 W4
1.0
   3.8765904903411865    0.0000000000000000    0.0003889403014912
   0.0020752599484617    3.8792943171954075    0.0003688639262692
   0.0000000000000000    0.0000000000000000   18.1604957580566406
Re Ir Os W
1 1 12 4
direct
   0.0018315360648558    0.5268558859825134    0.9775266051292419 Re
   0.5006847977638245    0.5267171859741211    0.5160006284713745 Ir
   0.5015870332717896    0.0272123273462057    0.9782027006149292 Os
   0.5005971789360046    0.0260004997253418    0.4085273146629333 Os
   0.5017354488372803    0.0258492790162563    0.7645130753517151 Os
   0.0005733348662034    0.0251626428216696    0.3002966940402985 Os
   0.5008607506752014    0.5255688428878784    0.3032646179199219 Os
   0.0012193918228149    0.5261388421058655    0.7641716599464417 Os
   0.5020110011100769    0.5260474085807800    0.0839528143405914 Os
   0.0018751621246338    0.0258738175034523    0.0837980732321739 Os
   0.0006567722884938    0.5261190533638000    0.4080632328987122 Os
   0.0015174150466919    0.0264432560652494    0.8708376288414001 Os
   0.5020421147346497    0.5264547467231750    0.8711465001106262 Os
   0.0014505863655359    0.5253863334655762    0.1924148797988892 Os
   0.0010051473509520    0.0267273429781199    0.5117476582527161 W
   0.5012091398239136    0.0253550913184881    0.1928375512361526 W
   0.0015099558513612    0.0256914272904396    0.6585335135459900 W
   0.5013169646263123    0.5256353616714479    0.6588221788406372 W
