Ir5 Os9
1.0
   4.7887854576110840    0.0000000000000000   -0.0046447906643155
  -2.3941955998432154    5.9905129826689851   -0.5409012436866766
   0.0000000000000000    0.0000000000000000    7.0317111015319824
Ir Os
5 9
direct
   0.4204992651939392    0.0884453877806663    0.7291699647903442 Ir
   0.2774904072284698    0.8023421168327332    0.0153054837137461 Ir
   0.5636282563209534    0.3735087513923644    0.4438427388668060 Ir
   0.8955728411674500    0.3717089295387268    0.9426862001419067 Ir
   0.0386509597301483    0.6574695110321045    0.6566685438156128 Ir
   0.1803484410047531    0.9432781934738159    0.3719202280044556 Os
   0.1349335014820099    0.5168329477310181    0.2986978888511658 Os
   0.3246043622493744    0.2303107529878616    0.0878101438283920 Os
   0.6115296483039856    0.8033403754234314    0.5130326151847839 Os
   0.7547529935836792    0.0873333513736725    0.2286772131919861 Os
   0.7057610154151917    0.6583029627799988    0.1584752351045609 Os
   0.4706043004989624    0.5188733339309691    0.8008029460906982 Os
   0.9903577566146851    0.2272603362798691    0.5835538506507874 Os
   0.8474467992782593    0.9420320391654968    0.8725004196166992 Os
