Ir5 Os11
1.0
   5.4774518013000488    0.0000000000000000   -0.0049608019180614
  -2.7448195799770461    4.7419028469850524   -0.0087237209081645
   0.0000000000000000    0.0000000000000000    8.8103275299072266
Ir Os
5 11
direct
   0.3355621993541718    0.6122125983238220    0.1931422352790833 Ir
   0.0024439096450806    0.9468794465065004    0.4437683820724487 Ir
   0.5024979114532471    0.9465968608856201    0.4421773254871368 Ir
   0.3363600373268127    0.6128486394882202    0.6932735443115234 Ir
   0.8361176848411560    0.6127025485038757    0.1933682560920715 Ir
   0.6703339815139771    0.2804260849952698    0.9449282884597778 Os
   0.5028483867645264    0.4439542591571807    0.4429946541786194 Os
   0.1701169013977051    0.7807021737098694    0.9431568980216980 Os
   0.0010826878715306    0.4440314173698425    0.4446889162063599 Os
   0.1692899763584137    0.2808532118797302    0.9433968067169189 Os
   0.8360424637794495    0.6122298240661621    0.6955825090408325 Os
   0.8360894322395325    0.1128765493631363    0.1906001716852188 Os
   0.6699584722518921    0.7806178331375122    0.9435396194458008 Os
   0.8362430334091187    0.1139007285237312    0.6963208913803101 Os
   0.3363834619522095    0.1134151145815849    0.6967504620552063 Os
   0.3360953927040100    0.1130215376615524    0.1891464889049530 Os
