Ir1 Os6
1.0
   3.8582212924957275    0.0000000000000000    0.0000642223603789
  -1.9301663355658722    4.2754903794218180   -0.6096526384353641
   0.0000000000000000    0.0000000000000000    6.1067118644714355
Ir Os
1 6
direct
   0.1920470744371414    0.7126740813255310    0.6911841034889221 Ir
   0.3348652422428132    0.9983589053153993    0.1219013854861260 Os
   0.9067411422729492    0.1423640102148056    0.8353136777877808 Os
   0.7642857432365417    0.8573421239852905    0.4051241874694824 Os
   0.0491920337080956    0.4271236360073090    0.2612702846527100 Os
   0.4772428870201111    0.2829627394676208    0.5469281673431396 Os
   0.6196054816246033    0.5681882500648500    0.9770584702491760 Os
