Re1 Os3
1.0
   2.7621150016784668    0.0000000000000000    0.0002524291630836
  -0.0009083920416643    4.3735217104718549   -0.0001748482463883
   0.0000000000000000    0.0000000000000000    4.7908205986022949
Re Os
1 3
direct
   0.3482522666454315    0.0547480173408985    0.8678917288780212 Re
   0.3482463657855988    0.5547530651092529    0.5364623665809631 Os
   0.8483778238296509    0.5548207759857178    0.0359570011496544 Os
   0.8483961820602417    0.0547221377491951    0.3722235560417175 Os
