Re3 Os4
1.0
   3.8875985145568848    0.0000000000000000   -0.0006373969954444
  -1.9443839589141019    4.3160237821773357   -0.6158725619316100
   0.0000000000000000    0.0000000000000000    6.1697411537170410
Re Os
3 4
direct
   0.0459645576775074    0.3026328384876251    0.7016337513923645 Re
   0.3292991518974304    0.8699458241462708    0.5559174418449402 Re
   0.9027268290519713    0.0161284469068050    0.2658543288707733 Re
   0.7597092390060425    0.7307556867599487    0.8416083455085754 Os
   0.4731360077857971    0.1574589908123017    0.9843468070030212 Os
   0.1873394548892975    0.5857441425323486    0.1266197264194489 Os
   0.6170900464057922    0.4451885521411896    0.4103231728076935 Os
