Re4 Os12
1.0
   5.5182261466979980    0.0000000000000000    0.0019778350833802
  -2.7545807444471246    4.7795611134134468    0.0024941102601590
   0.0000000000000000    0.0000000000000000    8.8288307189941406
Re Os
4 12
direct
   0.7150561213493347    0.1278943717479706    0.5071088671684265 Re
   0.0484291650354862    0.7950376272201538    0.0070975124835968 Re
   0.3821464776992798    0.4611005187034607    0.2570908069610596 Re
   0.3823837041854858    0.4605112373828888    0.7569686770439148 Re
   0.0508586429059505    0.2958664298057556    0.0066554956138134 Os
   0.7134078741073608    0.6272671818733215    0.5064029693603516 Os
   0.8816661238670349    0.4613411128520966    0.7572857737541199 Os
   0.2163018584251404    0.6266633868217468    0.5070937871932983 Os
   0.8823313117027283    0.4615124762058259    0.2568911910057068 Os
   0.5480897426605226    0.2950910627841950    0.0071872398257256 Os
   0.8819509744644165    0.9612907767295839    0.2572162747383118 Os
   0.8823587894439697    0.9612041115760803    0.7566176056861877 Os
   0.3821895122528077    0.9612507820129396    0.2569598555564880 Os
   0.2165457308292389    0.1301131844520569    0.5071004629135132 Os
   0.5478078126907350    0.7926854491233827    0.0068793380632997 Os
   0.3818014562129975    0.9608252048492433    0.7570590972900391 Os
