Os9 W1
1.0
   4.3808116912841797    0.0000000000000000   -0.0000821821449792
   0.0005544584728162    4.5454930920991528   -1.5677180290222161
   0.0000000000000000    0.0000000000000000    7.3381228446960449
Os W
9 1
direct
   0.2185809165239334    0.4733967185020447    0.6409657597541809 Os
   0.7181913852691650    0.0075430804863572    0.0430685691535473 Os
   0.7181411385536194    0.2050107568502426    0.4411424994468688 Os
   0.7185950875282288    0.6066476106643677    0.2449949681758880 Os
   0.7185817956924438    0.8075847625732422    0.6428275704383850 Os
   0.2185278385877609    0.2741201221942902    0.2409994751214981 Os
   0.2183629125356674    0.6751561164855957    0.0449707135558129 Os
   0.2183386534452438    0.0676123499870300    0.8423663377761840 Os
   0.2179177254438400    0.8748814463615417    0.4438734650611877 Os
   0.7181402444839478    0.4073450565338135    0.8431969285011290 W
