Re4 Ir1 Os5
1.0
   2.7361838817596431    0.0000000000000000   -0.0006899872678334
  -0.0044361329270409    2.7369050790729705   -0.0004634158394765
   0.0000000000000000    0.0000000000000000   19.4435100555419922
Re Ir Os
4 1 5
direct
   0.6285258531570435    0.2323555350303650    0.4763979613780975 Re
   0.6286048293113708    0.2331757098436356    0.8764427900314331 Re
   0.6272404193878174    0.2324008643627167    0.2768526673316956 Re
   0.6280085444450378    0.2330544590950012    0.6762093305587769 Re
   0.1281212419271469    0.7325671315193177    0.1760679930448532 Ir
   0.1285967081785202    0.7328528761863710    0.9780368804931641 Os
   0.6287210583686829    0.2330490350723267    0.0749380812048912 Os
   0.1280331015586853    0.7326087951660156    0.5764977335929871 Os
   0.1279053092002869    0.7325561642646790    0.3760922849178314 Os
   0.1285682618618011    0.7329716086387635    0.7759782075881958 Os
