Re2 Os10
1.0
   4.3585023880004883    0.0000000000000000    0.0025665052235125
   0.0042263035119994    4.7857623512541787   -0.0012952614342804
   0.0000000000000000    0.0000000000000000    8.3015327453613281
Re Os
2 10
direct
   0.8841838836669922    0.2082279473543167    0.3078449070453644 Re
   0.3840883076190948    0.8738520145416260    0.6408334970474243 Re
   0.3840958476066589    0.3730250597000123    0.8077312111854553 Os
   0.3842313885688782    0.8740390539169312    0.3082905709743500 Os
   0.8842537403106689    0.7072180509567261    0.8077856302261353 Os
   0.8840972781181335    0.7089757919311523    0.4739441275596619 Os
   0.8842039704322815    0.2084957510232925    0.6404459476470947 Os
   0.8840629458427429    0.2055575996637344    0.9749175906181335 Os
   0.3843134939670563    0.8749259114265442    0.9757018685340881 Os
   0.8838622570037842    0.7074876427650452    0.1414240896701813 Os
   0.3841447830200195    0.3720362782478333    0.1411464810371399 Os
   0.3841172754764557    0.3718435168266296    0.4751836955547333 Os
