Ir3 Os9
1.0
   3.8130223751068115    0.0000000000000000   -0.6308977603912362
  -0.1079293761111311    3.8017078508009843   -0.6294155716896055
   0.0000000000000000    0.0000000000000000   11.8626327514648438
Ir Os
3 9
direct
   0.6393665075302124    0.0997452959418297    0.9661771655082703 Ir
   0.5562776923179626    0.5165946483612061    0.7996215820312500 Ir
   0.3066867589950562    0.7674939632415771    0.3007680475711823 Ir
   0.9729810357093811    0.4334762394428253    0.6331203579902649 Os
   0.8049014806747437    0.2655221521854401    0.2976447343826294 Os
   0.3906944096088409    0.3508749008178711    0.4687787890434265 Os
   0.0558020398020744    0.0161131229251623    0.7987875938415527 Os
   0.4725353419780731    0.9329658150672913    0.6325462460517883 Os
   0.7227787375450134    0.6827848553657532    0.1331017762422562 Os
   0.8891761898994446    0.8499768376350403    0.4668583571910858 Os
   0.2232401669025421    0.1837376207113266    0.1343152672052383 Os
   0.1411530226469040    0.6017704606056213    0.9701963663101196 Os
