Re10 Os8
1.0
   3.8958952426910405    0.0000000000000000    0.0004066676774531
  -0.0004530372345196    3.9005746578337726   -0.0002721865894280
   0.0000000000000000    0.0000000000000000   18.0534782409667969
Re Os
10 8
direct
   0.1288333237171173    0.6401894092559814    0.7475126385688782 Re
   0.6297931075096130    0.6394692659378051    0.2044613659381866 Re
   0.1293951719999313    0.1406252235174179    0.4227084517478943 Re
   0.6295414566993713    0.1404439508914948    0.5310953259468079 Re
   0.1294085532426834    0.1399401426315308    0.2048664689064026 Re
   0.1287907361984253    0.6405606865882872    0.9601598381996155 Re
   0.6291081905364990    0.6406099796295166    0.6389383077621460 Re
   0.6287587881088257    0.1405439376831055    0.7474963068962097 Re
   0.6295136809349060    0.1402086615562439    0.3147400915622711 Re
   0.6292709708213806    0.6402904987335205    0.4236576557159424 Re
   0.1287109851837158    0.1405994296073913    0.6386513710021973 Os
   0.1293490827083588    0.6401137113571166    0.1026902571320534 Os
   0.1294441372156143    0.6401445865631102    0.5315486192703247 Os
   0.6284260749816895    0.6404844522476196    0.8566541075706482 Os
   0.6293825507164001    0.1401950269937515    0.1013111323118210 Os
   0.6288374662399292    0.1404967010021209    0.9600361585617065 Os
   0.1287941336631775    0.1406537890434265    0.8575243353843689 Os
   0.1293648183345795    0.6406183838844299    0.3142582178115845 Os
