Ir1 Os15
1.0
   5.4971466064453125    0.0000000000000000    0.0081852553412320
  -2.7294657439483658    4.7708451086728569    0.0088204434141516
   0.0000000000000000    0.0000000000000000    8.8112468719482422
Ir Os
1 15
direct
   0.9742001891136168    0.4365092515945435    0.8952953815460205 Ir
   0.3067656159400940    0.6029320359230042    0.3960116505622864 Os
   0.4730328023433685    0.4358245432376862    0.8956025242805481 Os
   0.9741433262825011    0.9370244145393372    0.8952601552009583 Os
   0.1413331925868988    0.7710299491882324    0.1471119225025177 Os
   0.1401749104261398    0.2692180871963501    0.1470947563648224 Os
   0.1403431594371796    0.2693764269351959    0.6448683738708496 Os
   0.6395889520645142    0.2693500518798828    0.1462483555078506 Os
   0.4731113314628602    0.9366142153739930    0.8956498503684998 Os
   0.6402394771575928    0.7693464756011963    0.1460871100425720 Os
   0.1409288048744202    0.7708044052124023    0.6457676291465759 Os
   0.6393535733222961    0.2688766419887543    0.6445642709732056 Os
   0.8071920275688171    0.1023756712675095    0.3964304327964783 Os
   0.8073154687881470    0.6039607524871826    0.3961031734943390 Os
   0.3072209656238556    0.1036908924579620    0.3959511518478394 Os
   0.6405683755874634    0.7698444724082947    0.6464616060256958 Os
