Ir7 Os5
1.0
   3.8124458789825435    0.0000000000000000   -0.6276832818984989
  -0.1040257930621875    3.8060823771751919   -0.6265623569488538
   0.0000000000000000    0.0000000000000000   11.8834714889526367
Ir Os
7 5
direct
   0.8861043453216553    0.0253495573997498    0.4475646913051605 Ir
   0.1358092278242111    0.7757775187492371    0.9472452998161316 Ir
   0.5525617599487305    0.6920850872993469    0.7803131937980652 Ir
   0.3886205255985260    0.5278199911117554    0.4525083303451538 Ir
   0.6372337341308594    0.2764491736888885    0.9501727223396301 Ir
   0.7199241518974304    0.8597710728645325    0.1162087917327881 Ir
   0.8020032048225403    0.4419354796409607    0.2795712053775787 Ir
   0.0507326163351536    0.1897305548191071    0.7768277525901794 Os
   0.2215470820665359    0.3618732392787933    0.1190028116106987 Os
   0.4713288247585296    0.1111262217164040    0.6186370849609375 Os
   0.9701429605484008    0.6094291806221008    0.6159386634826660 Os
   0.3020073175430298    0.9417330622673036    0.2790500521659851 Os
