Re4 Ir14
1.0
   5.4296126365661621    0.0000000000000000    1.0606330633163450
   1.2188479052934034    6.6561582588063635    1.0544459819793688
   0.0000000000000000    0.0000000000000000    7.3034801483154297
Re Ir
4 14
direct
   0.4994558393955231    0.0427153185009956    0.8536953330039978 Re
   0.9818423986434937    0.3799886107444763    0.5923765301704407 Re
   0.3113444447517395    0.3824023604393005    0.2666330635547638 Re
   0.9614714384078979    0.7169280648231506    0.3355315923690796 Re
   0.3314505815505981    0.0479001067578793    0.5215343832969666 Ir
   0.2931903898715973    0.7126519680023193    0.0043627875857055 Ir
   0.6634791493415833    0.0469587557017803    0.1867872774600983 Ir
   0.7932105660438538    0.7170231938362122    0.0027887821197510 Ir
   0.6287372708320618    0.7130544185638428    0.6663208007812500 Ir
   0.1483919322490692    0.3781985640525818    0.9279698133468628 Ir
   0.9985795617103577    0.0465756058692932    0.8546431064605713 Ir
   0.1680002063512802    0.0466116964817047    0.1853808909654617 Ir
   0.8142946958541870    0.3799217939376831    0.2638797461986542 Ir
   0.1265981197357178    0.7140372395515442    0.6676852107048035 Ir
   0.4784077405929565    0.3794092535972595    0.5948569178581238 Ir
   0.8306085467338562    0.0456543006002903    0.5244072675704956 Ir
   0.4598290920257568    0.7152934670448303    0.3360019922256470 Ir
   0.6453961133956909    0.3791272938251495    0.9278420209884644 Ir
