Ir3 Os8
1.0
   4.7260241508483887    0.0000000000000000    0.0000735969806552
   0.7907975201033535    4.6420738670420238    0.5202565193176273
   0.0000000000000000    0.0000000000000000    7.2210254669189453
Ir Os
3 8
direct
   0.4646222889423370    0.9988974332809448    0.2884237766265869 Ir
   0.9170897006988525    0.2759920656681061    0.1966578513383865 Ir
   0.7370204925537109    0.3636851906776428    0.8327718377113342 Ir
   0.8288983702659607    0.8188645243644715    0.0141548933461308 Os
   0.0114500978961587    0.7242047786712646    0.3801113665103912 Os
   0.1905786097049713    0.6391847133636476    0.7422474622726440 Os
   0.2843102514743805    0.0891300514340401    0.9238595962524415 Os
   0.6451969146728516    0.9104338288307190    0.6510633230209351 Os
   0.5543011426925659    0.4558834433555603    0.4707571268081666 Os
   0.3699483275413513    0.5490230321884155    0.1053754463791847 Os
   0.1004208773374557    0.1826614290475845    0.5607405304908752 Os
