Re2 Os14
1.0
   5.5114936828613281    0.0000000000000000    0.0000096144030976
  -2.7551219527157111    4.7678107176820381   -0.0013676026137562
   0.0000000000000000    0.0000000000000000    8.8120965957641602
Re Os
2 14
direct
   0.7386465668678284    0.9359205365180968    0.4040320515632629 Re
   0.9058376550674437    0.2706660032272339    0.9036152958869934 Re
   0.5722996592521667    0.1028706058859825    0.1539147198200226 Os
   0.4059095382690430    0.2699325680732727    0.9043981432914734 Os
   0.5718588232994080    0.6019566059112548    0.6544703245162964 Os
   0.0728534162044525    0.6038193702697754    0.6527366042137146 Os
   0.0731265097856522    0.6045103073120117    0.1545450091362000 Os
   0.0730585232377052    0.1038126647472382    0.1538805812597275 Os
   0.0733556151390076    0.1036474704742432    0.6539977788925171 Os
   0.2387645691633224    0.9359856843948364    0.4031662344932556 Os
   0.7403389811515808    0.4371600747108459    0.4033893942832947 Os
   0.4053192436695099    0.7689756751060485    0.9043189287185669 Os
   0.9045270681381224    0.7691946029663086    0.9036921262741089 Os
   0.2388691008090973    0.4373071491718292    0.4034455716609955 Os
   0.5716755986213684    0.6021399497985840    0.1530880928039551 Os
   0.5720916986465454    0.1030369773507118    0.6538785099983215 Os
