Re4 Os10 W6
1.0
   5.5011544227600089    0.0000000000000000   -0.7639716267585757
   0.1130899564271063    5.4789092945827296    0.7873627543449409
   0.0000000000000000    0.0000000000000000   10.0178394317626953
Re Os W
4 10 6
direct
   0.8415180444717407    0.8388971686363220    0.9228592514991760 Re
   0.2446875423192978    0.4360914528369904    0.5229309797286987 Re
   0.5399313569068909    0.6424309015274048    0.7204689979553223 Re
   0.1423394680023193    0.5400997996330261    0.1218677833676338 Re
   0.3435851633548737    0.8403242826461792    0.9238961935043335 Os
   0.0430286005139351    0.6384841203689575    0.7218004465103151 Os
   0.9416098594665527    0.2389788776636123    0.3213765919208527 Os
   0.6437330842018127    0.0382837355136871    0.1230302900075912 Os
   0.1420452743768692    0.0406321473419666    0.1225914806127548 Os
   0.5427187085151672    0.1407917737960815    0.7223731875419617 Os
   0.6422755718231201    0.5375605821609497    0.1216113269329071 Os
   0.7422230839729309    0.4396272003650665    0.5228642225265503 Os
   0.2422251850366592    0.9387968778610228    0.5211117267608643 Os
   0.4422664046287537    0.2382002174854279    0.3214370310306549 Os
   0.4415946900844574    0.7375706434249878    0.3211323320865631 W
   0.7398757934570312    0.9432930350303650    0.5240232944488525 W
   0.9412060976028442    0.7390793561935426    0.3191558420658112 W
   0.3433169722557068    0.3413489162921906    0.9232307672500610 W
   0.8416811823844910    0.3396859169006348    0.9242300391197205 W
   0.0462703444063663    0.1363753825426102    0.7207487821578979 W
