Ir2 Os3
1.0
   2.6968717575073242    0.0000000000000000   -0.3760516941547395
  -0.0536312155958225    2.6972524765368329   -0.3761840462684631
   0.0000000000000000    0.0000000000000000    9.8731040954589844
Ir Os
2 3
direct
   0.4993148744106293    0.2705132067203522    0.4658918678760529 Ir
   0.6977215409278870    0.4691138863563538    0.8630490899085999 Ir
   0.2998558580875397    0.0713169053196907    0.0675011575222015 Os
   0.0985062569379807    0.8697718977928163    0.6647247076034546 Os
   0.8965036869049072    0.6678847670555115    0.2608217597007751 Os
