Re6 Ir8 W1
1.0
   3.8820035457611084    0.0000000000000000    0.0004181751864962
   0.0027160674918909    3.8876974631766368    0.0003854202514050
   0.0000000000000000    0.0000000000000000   15.4534797668457031
Re Ir W
6 8 1
direct
   0.6350314617156981    0.5560412406921387    0.4738269746303558 Re
   0.1349550783634186    0.0562637895345688    0.2368527799844742 Re
   0.6344845890998839    0.5561209917068480    0.2367777228355408 Re
   0.1349857896566391    0.0566922761499882    0.7285760045051575 Re
   0.1351445168256760    0.5560479164123535    0.1141573041677475 Re
   0.6349449753761290    0.5562125444412231    0.9858068227767944 Re
   0.1349714547395706    0.5565597414970398    0.5992288589477539 Ir
   0.1350562423467636    0.0559935607016087    0.4740650057792664 Ir
   0.1354151964187622    0.5568601489067078    0.8555152416229248 Ir
   0.6350252032279967    0.0560030564665794    0.3554992079734802 Ir
   0.6351208686828612    0.0561212264001369    0.1096827238798141 Ir
   0.6352733373641967    0.0568166412413120    0.8563721776008606 Ir
   0.6349006891250609    0.0560955740511417    0.6000818610191345 Ir
   0.1348285228013992    0.0562555007636547    0.9846051931381226 Ir
   0.6351737380027770    0.5567331314086914    0.7280229330062866 W
