Re3 Ir2 W2
1.0
   3.9346199035644531    0.0000000000000000    0.0004801282775585
  -1.9650044410325900    4.3635403968446882   -0.6202435493469236
   0.0000000000000000    0.0000000000000000    6.2154173851013184
Re Ir W
3 2 2
direct
   0.8067713379859924    0.9577087759971620    0.7926266789436340 Re
   0.6632203459739685    0.6724048256874084    0.3648341596126556 Re
   0.5188990831375122    0.3816288709640503    0.9327531456947327 Re
   0.3771761655807495    0.0976843461394310    0.5058692097663879 Ir
   0.2338205724954605    0.8114241957664490    0.0788422897458077 Ir
   0.9459053277969360    0.2363232672214508    0.2123467475175858 W
   0.0944423899054527    0.5324559807777405    0.6554763317108154 W
