Re3 Os9
1.0
   3.8685789108276367    0.0000000000000000   -0.0005028449813832
  -0.0003318836593287    3.8698203421375093   -0.0002036106307055
   0.0000000000000000    0.0000000000000000   11.6402845382690430
Re Os
3 9
direct
   0.3883239626884460    0.4796333611011505    0.8391741514205933 Re
   0.3883538842201232    0.9798098206520082    0.3370458185672760 Re
   0.8882815837860106    0.4797402322292328    0.6685619354248047 Re
   0.3880930542945861    0.4794055819511414    0.1700707823038101 Os
   0.3883312940597534    0.9798728227615358    0.0044349804520607 Os
   0.8885124325752257    0.4798622727394105    0.0033799409866333 Os
   0.8882576227188109    0.9795313477516175    0.1697204411029816 Os
   0.8881832361221312    0.9798230528831483    0.8378110527992249 Os
   0.8883586525917052    0.9796290993690491    0.5031651258468628 Os
   0.8883624076843261    0.4799867868423462    0.3368217647075653 Os
   0.3881417214870452    0.9797430038452150    0.6689792871475220 Os
   0.3884128332138061    0.4795121848583222    0.5047197341918945 Os
