Ir3 Os13
1.0
   5.4567046165466309    0.0000000000000000    0.0003256569034424
  -0.0014699174300922    5.4553149150353182   -0.0009015878895298
   0.0000000000000000    0.0000000000000000    7.7136931419372559
Ir Os
3 13
direct
   0.8800770640373230    0.9523092508316040    0.2039911597967148 Ir
   0.3801357448101044    0.4518737792968750    0.7038737535476685 Ir
   0.8806464672088623    0.4523128569126129    0.2038469314575195 Ir
   0.8807578682899475    0.9522635936737061    0.7037008404731750 Os
   0.1310715526342392    0.2015373110771179    0.4542480111122131 Os
   0.6293067336082458    0.2020224481821060    0.4542241990566254 Os
   0.8800659775733948    0.4517456591129303    0.7036138176918030 Os
   0.1310847103595734    0.7023004889488220    0.4551054239273071 Os
   0.6294575333595276    0.2019565850496292    0.9536795616149902 Os
   0.6291497349739075    0.7025545835494995    0.4544380307197571 Os
   0.3805723488330841    0.4522104561328888    0.2040019035339355 Os
   0.3801317811012268    0.9518939852714537    0.2042236626148224 Os
   0.1309484243392944    0.2019430100917816    0.9530443549156189 Os
   0.6295003890991211    0.7020972371101379    0.9530150890350342 Os
   0.1309499293565750    0.7026912569999695    0.9527715444564819 Os
   0.3809890151023865    0.9524751305580139    0.7040182352066040 Os
