Os10 W6
1.0
   5.4894223213195801    0.0000000000000000   -0.8545452952384950
  -2.6649011561943325    4.7894996399715781    0.8390274047851560
   0.0000000000000000    0.0000000000000000    9.2280130386352539
Os W
10 6
direct
   0.0153798600658774    0.0042305071838200    0.4363925158977509 Os
   0.2634831368923187    0.2487978339195251    0.9375566244125366 Os
   0.5152913928031921    0.0040072612464428    0.4386731982231140 Os
   0.3907394409179688    0.1274044364690781    0.6891674995422363 Os
   0.0138077223673463    0.5021082758903505    0.4380208551883698 Os
   0.3909584581851959    0.6292575597763062    0.6873034238815308 Os
   0.1390106678009033    0.3750641644001007    0.1863317489624023 Os
   0.6421543359756471    0.8752926588058473    0.1882946044206619 Os
   0.8905081152915955    0.6289581060409546    0.6869414448738098 Os
   0.7653759121894836    0.2499020993709564    0.9393765330314636 Os
   0.2644992172718048    0.7495462894439697    0.9349864721298218 W
   0.7638563513755798    0.7501006126403810    0.9353167414665222 W
   0.1411638110876083    0.8766012191772461    0.1970830857753754 W
   0.8925125002861023    0.1336584836244583    0.6849737763404846 W
   0.5128611922264099    0.5045019984245300    0.4419298768043518 W
   0.6424171924591064    0.3720664978027344    0.1831155121326447 W
