Ir2 Os1 W1
1.0
   2.7700829505920410    0.0000000000000000    0.0006979632307777
   0.0053798249728439    4.4208121943968397    0.0005847792490387
   0.0000000000000000    0.0000000000000000    4.8347229957580566
Ir Os W
2 1 1
direct
   0.0891214609146118    0.0612265095114708    0.7783612012863159 Ir
   0.0889801010489464    0.5607882738113403    0.1128635704517365 Ir
   0.5893840789794922    0.5609115362167358    0.6199712157249451 Os
   0.5895750522613525    0.0612390190362930    0.2890010774135590 W
