Re1 Ir2 Os1
1.0
   3.5332171916961670    0.0000000000000000   -1.5659377574920654
  -0.6902610065154481    3.4624512789019222   -1.5622490644454958
   0.0000000000000000    0.0000000000000000    4.7649970054626465
Re Ir Os
1 2 1
direct
   0.8509865403175355    0.0178826730698347    0.0485172905027867 Re
   0.1010318771004677    0.7675448060035706    0.5485602021217346 Ir
   0.6011790037155151    0.2681274116039276    0.5483857393264771 Ir
   0.3511480093002319    0.5180258750915527    0.0484990626573563 Os
