Ir1 Os3
1.0
   2.7535474300384521    0.0000000000000000   -0.0002748643164522
  -1.3765045150930606    2.3832683767589216   -0.0002898242964877
   0.0000000000000000    0.0000000000000000    8.7637500762939453
Ir Os
1 3
direct
   0.3771598637104034    0.8352933526039124    0.9790582060813904 Ir
   0.3770454227924347    0.8350384831428528    0.4789674282073975 Os
   0.7104998826980591    0.5017644166946411    0.2326921224594116 Os
   0.7105034589767456    0.5016681551933289    0.7253781557083130 Os
