Ba2 Ce1 Pt1 O6
1.0
   5.1493173358572673    0.0000000000000000    2.9729597500000002
   1.3094576579499295    3.7037055584521990    2.2680471939294260
   0.0000000000000000    0.0000000000000000    5.9459194999999996
Ba Ce Pt O
2 1 1 6
direct
   0.7500000000000000    0.7500000000000000    0.7500000000000000 Ba2+
   0.2500000000000000    0.2500000000000000    0.2500000000000000 Ba2+
   0.5000000000000000    0.5000000000000000    0.5000000000000000 Ce4+
   0.0000000000000000    0.0000000000000000    0.0000000000000000 Pt4+
   0.7520000000000000    0.7520000000000000    0.2480000000000000 O2-
   0.2480000000000000    0.7520000000000000    0.7520000000000000 O2-
   0.7520000000000000    0.2480000000000000    0.7520000000000000 O2-
   0.7520000000000000    0.2480000000000000    0.2480000000000000 O2-
   0.2480000000000000    0.7520000000000000    0.2480000000000000 O2-
   0.2480000000000000    0.2480000000000000    0.7520000000000000 O2-
