Cs2 Ag1 F4
1.0
   4.3790524371172035    0.0000000000000000   -1.3451619802008541
  -0.4132082862586313    4.3595136379175745   -1.3451619802008541
   0.0000000000000000    0.0000000000000000    7.8003843799999997
Cs Ag F
2 1 4
direct
   0.2966732215830457    0.3214976369795465    0.6996774226543452 Cs
   0.6246230044402139    0.5693867321737794    0.2246583798924736 Cs
   0.9718092074255761    0.9164814191028439    0.9825420526108892 Ag
   0.0487310210451874    0.0592418350303271    0.3103079981379741 F
   0.7964447757874734    0.7879331748689105    0.6950564243164747 F
   0.0654578459649203    0.5349150929958615    0.0165288933866344 F
   0.4754012429872726    0.0335050151514393    0.9151595640261924 F
