Ag2 B2 F10
1.0
   6.6994999999999996    0.0000000000000000    0.0000000000000004
   0.0000000000000011    6.6994999999999996    0.0000000000000004
   0.0000000000000000    0.0000000000000000    4.0115999999999996
Ag B F
2 2 10
direct
   0.7500000000000000    0.7500000000000000    0.8076400000000000 Ag
   0.2500000000000000    0.7500000000000000    0.0000000000000000 Ag
   0.2500000000000000    0.2500000000000000    0.1923600000000000 B
   0.7500000000000000    0.2500000000000000    0.0000000000000000 B
   0.3136000000000000    0.5914000000000000    0.1984000000000000 F
   0.9086000000000000    0.3136000000000000    0.1984000000000000 F
   0.1864000000000000    0.9086000000000000    0.1984000000000000 F
   0.5914000000000000    0.1864000000000000    0.1984000000000000 F
   0.6864000000000000    0.4086000000000000    0.8016000000000000 F
   0.0914000000000000    0.6864000000000000    0.8016000000000000 F
   0.8136000000000000    0.0914000000000000    0.8016000000000000 F
   0.4086000000000000    0.8136000000000000    0.8016000000000000 F
   0.2500000000000000    0.2500000000000000    0.6934000000000000 F
   0.7500000000000000    0.7500000000000000    0.3066000000000000 F
