Rb2 Ti1 Cl6
1.0
   6.0759593044336855    0.0000000000000000    3.5079567400000009
   2.0253197681445623    5.7284693685047436    3.5079567400000009
   0.0000000000000000    0.0000000000000000    7.0159134800000000
Rb Ti Cl
2 1 6
direct
   0.2500000000000000    0.2500000000000000    0.2500000000000000 Rb+
   0.7650000000000000    0.2350000000000000    0.2350000000000000 Rb+
   0.0000000000000000    0.0000000000000000    0.0000000000000000 Ti4+
   0.7500000000000000    0.7500000000000000    0.7500000000000000 Cl-
   0.7650000000000000    0.7650000000000000    0.2350000000000000 Cl-
   0.2350000000000000    0.7650000000000000    0.7650000000000000 Cl-
   0.7650000000000000    0.2350000000000000    0.7650000000000000 Cl-
   0.2350000000000000    0.7650000000000000    0.2350000000000000 Cl-
   0.2350000000000000    0.2350000000000000    0.7650000000000000 Cl-
