K2 Pd1 Cl6
1.0
   5.9645075247535315    0.0000000000000000    3.4436100250000008
   1.9881691749178441    5.6233916229218819    3.4436100250000008
   0.0000000000000000    0.0000000000000000    6.8872200499999998
K Pd Cl
2 1 6
direct
   0.7553377981399576    0.7206358374933541    0.7349070134496289 K+
   0.3822965103626556    0.2107216043242779    0.2187194294641476 K+
   0.0374237261187539    0.0265352756418192    0.9461344905302443 Pd4+
   0.7284173553144750    0.7491477184527301    0.2208069991639834 Cl-
   0.2415744499913058    0.7928723299268964    0.7883708204436957 Cl-
   0.5962799836988734    0.2161660043416800    0.8059033706379348 Cl-
   0.8737039063764891    0.1443728593825687    0.1912759721166762 Cl-
   0.2490589858302100    0.6396047822302632    0.2765747769002938 Cl-
   0.1222803776616490    0.2190828617749338    0.9242921410871625 Cl-
