K2 Os1 Cl6
1.0
   5.9577714232783237    0.0000000000000000    3.4397209350000009
   1.9859238077594414    5.6170407655460419    3.4397209350000009
   0.0000000000000000    0.0000000000000000    6.8794418700000000
K Os Cl
2 1 6
direct
   0.7707061993528428    0.9062470745280310    0.6272505318424326 K+
   0.4680393451559490    0.2805610543660121    0.1644342810716350 K+
   0.1447743365291600    0.9324493808133787    0.0158487249284099 Os4+
   0.7443179215349494    0.9338983021057797    0.2491141076815355 Cl-
   0.2175960426999310    0.6864113447578307    0.9489922738087593 Cl-
   0.7492966276432312    0.3402806675019906    0.8874992878110017 Cl-
   0.5582988302671669    0.2142038246658028    0.3278855559069698 Cl-
   0.0329014764167568    0.7833180267210674    0.3644495333546069 Cl-
   0.4527586711318637    0.1756031419903659    0.6871472137461075 Cl-
