K2 Tc2 O8
1.0
   5.2257727665237974    0.0000000000000000   -2.0948028529334732
  -0.8397225039651430    5.1578645895056505   -2.0948028529334732
   0.0000000000000000    0.0000000000000000    7.5656045499999998
K Tc O
2 2 8
direct
   0.6081613908592782    0.7935928340253599    0.0860500187828670 K
   0.4271489488603004    0.8941842212261751    0.7943766983935493 K
   0.1225181861516866    0.4616345038350839    0.2929600898000891 Tc
   0.9069255515891729    0.5547025264766123    0.9150018839258485 Tc
   0.1945110995425348    0.8982347600989247    0.2742982865868423 O
   0.7400581055677631    0.5346223357058324    0.4933325518184736 O
   0.1148089716758838    0.9210812985485972    0.8210601350613873 O
   0.6940621272391443    0.1672897048420134    0.9317588457217620 O
   0.3760177384097742    0.7595637788095592    0.5003083653928350 O
   0.2170923282264101    0.3958540588186800    0.7680479544906789 O
   0.7671855806160433    0.5705863447581011    0.7733854679050013 O
   0.3006792886888323    0.3297107206622568    0.0327039838941603 O
