K2 Tc2 O8
1.0
   6.3348471945512319    0.0000000000000000   -2.5393863393855436
  -1.0179382047611845    6.2525267524098762   -2.5393863393855436
   0.0000000000000000    0.0000000000000000    9.1712653611099721
K Tc O
2 2 8
direct
   0.6250000000000000    0.8750000000000000    0.2500000000000000 K
   0.3750000000000000    0.1250000000000000    0.7500000000000000 K
   0.1250000000000000    0.3750000000000000    0.2500000000000000 Tc
   0.8750000000000000    0.6250000000000000    0.7500000000000000 Tc
   0.3185000000000000    0.2288000000000000    0.4030000000000000 O
   0.6815000000000000    0.7712000000000000    0.5970000000000000 O
   0.1742000000000000    0.8185000000000000    0.9030000000000000 O
   0.8258000000000000    0.1815000000000000    0.0970000000000000 O
   0.0845000000000000    0.6742000000000000    0.4030000000000000 O
   0.9155000000000000    0.3258000000000000    0.5970000000000000 O
   0.7288000000000000    0.5845000000000000    0.9030000000000000 O
   0.2712000000000000    0.4155000000000000    0.0970000000000000 O
