Cs2 Si1 F6
1.0
   5.4439909492233713    0.0000000000000000    3.1430896400000008
   1.8146636497411239    5.1326438892187145    3.1430896400000008
   0.0000000000000000    0.0000000000000000    6.2861792799999998
Cs Si F
2 1 6
direct
   0.6777283891044237    0.8216085293392843    0.7563632624784711 Cs+
   0.3108198595492602    0.0476798862257054    0.4475141918734427 Cs+
   0.2552102950667508    0.9011278994100226    0.1351295174436175 Si4+
   0.7495232927683089    0.6537412549274793    0.2807323851317973 F-
   0.4078039683058878    0.7685585570872222    0.6542230959157050 F-
   0.6698475892395243    0.4144989314754302    0.7144634007631162 F-
   0.9789784201630000    0.3108819727045697    0.9476923555877214 F-
   0.2702284337634455    0.6896629470330494    0.2458224838930274 F-
   0.8281265241335436    0.1312379805064703    0.9277492649711206 F-
