Rb2 Pt1 Cl6
1.0
   6.0526891585327274    0.0000000000000000    3.4945217150000007
   2.0175630528442428    5.7065300645503862    3.4945217150000007
   0.0000000000000000    0.0000000000000000    5.9247762646473401
Rb Pt Cl
2 1 6
direct
   0.7500000000000000    0.7500000000000000    0.7500000000000000 Rb+
   0.2500000000000000    0.2500000000000000    0.2500000000000000 Rb+
   0.0000000000000000    0.0000000000000000    0.0000000000000000 Pt4+
   0.7650000000000000    0.7650000000000000    0.2350000000000000 Cl-
   0.2350000000000000    0.7650000000000000    0.7650000000000000 Cl-
   0.7650000000000000    0.2350000000000000    0.7650000000000000 Cl-
   0.7650000000000000    0.2350000000000000    0.2350000000000000 Cl-
   0.2350000000000000    0.7650000000000000    0.2350000000000000 Cl-
   0.2350000000000000    0.2350000000000000    0.7650000000000000 Cl-
