K2 Pd1 Cl6
1.0
   5.9645075247535315    0.0000000000000000    3.4436100250000008
   1.9881691749178441    5.6233916229218819    3.4436100250000008
   0.0000000000000000    0.0000000000000000    6.8872200499999998
K Pd Cl
2 1 6
direct
   0.7500000000000000    0.7500000000000000    0.7500000000000000 K+
   0.0000000000000000    0.0000000000000000    0.0000000000000000 K+
   0.2500000000000000    0.2500000000000000    0.2500000000000000 Pd4+
   0.7700000000000000    0.7700000000000000    0.2300000000000000 Cl-
   0.2300000000000000    0.7700000000000000    0.7700000000000000 Cl-
   0.7700000000000000    0.2300000000000000    0.7700000000000000 Cl-
   0.7700000000000000    0.2300000000000000    0.2300000000000000 Cl-
   0.2300000000000000    0.7700000000000000    0.2300000000000000 Cl-
   0.2300000000000000    0.2300000000000000    0.7700000000000000 Cl-
