Rb2 Sn1 I6
1.0
   7.1035202525435901    0.0000000000000000    4.1012193300000011
   2.3678400841811968    6.6972631211593985    4.1012193300000011
   0.0000000000000000    0.0000000000000000    8.2024386600000003
Rb Sn I
2 1 6
direct
   0.2500000000000000    0.2500000000000000    0.2500000000000000 Rb+
   0.7550000000000000    0.7550000000000000    0.2450000000000000 Rb+
   0.0000000000000000    0.0000000000000000    0.0000000000000000 Sn4+
   0.7500000000000000    0.7500000000000000    0.7500000000000000 I-
   0.2450000000000000    0.7550000000000000    0.7550000000000000 I-
   0.7550000000000000    0.2450000000000000    0.7550000000000000 I-
   0.7550000000000000    0.2450000000000000    0.2450000000000000 I-
   0.2450000000000000    0.7550000000000000    0.2450000000000000 I-
   0.2450000000000000    0.2450000000000000    0.7550000000000000 I-
