Cs2 Ag1 Au1 Cl6
1.0
   6.3992919500770666    0.0000000000000000    3.6946329300000009
   2.1330973166923557    6.0333103102559722    3.6946329300000009
   0.0000000000000000    0.0000000000000000    7.3892658600000001
Cs Ag Au Cl
2 1 1 6
direct
   0.7726912704253022    0.8009577259603671    0.6865666034605267 Cs+
   0.2978640683940684    0.2407881692494481    0.2578885051095637 Cs+
   0.5385534630790411    0.5198151640281428    0.4825533771055954 Ag+
   0.9168942098796889    0.0438833623845272    0.0755673309911322 Au3+
   0.6695069024058903    0.7884952331295974    0.2482842842433080 Cl-
   0.1870961670507471    0.6582381489247670    0.9513902632928622 Cl-
   0.6562740025473712    0.2982613675666328    0.7538380187197955 Cl-
   0.7540916896878006    0.2435175442762827    0.1815440297285373 Cl-
   0.2723922211372881    0.7476849911405458    0.2527530325849299 Cl-
   0.2810932158281255    0.1325229242203613    0.7561147952411471 Cl-
