Cr4 Ag2 Te8
1.0
   6.9632869672735547    0.0000000000000000    4.0202556050000009
   2.3210956557578517    6.5650499118760530    4.0202556050000009
   0.0000000000000000    0.0000000000000000    8.0405112100000000
Cr Ag Te
4 2 8
direct
   0.4637930893143721    0.5714559341182487    0.4839897913350202 Cr
   0.5654601039876680    0.5215215671401696    0.9507533646027235 Cr
   0.0523868050903118    0.5246681204342758    0.4341854900009554 Cr
   0.4720144635893319    0.0286099596541783    0.5304471039549026 Cr
   0.7609226572010297    0.9346101313754561    0.9893722202887349 Ag
   0.0921790003760175    0.2090349467548768    0.0756133258127039 Ag
   0.7783465827337008    0.7412081751933132    0.7230593331259907 Te
   0.1900676968986940    0.2123675890223710    0.6629249828810062 Te
   0.4143947083204356    0.6845551014479192    0.6968436204608376 Te
   0.2532306707352242    0.7259147585785133    0.2247673470663303 Te
   0.7546127460222560    0.7146306293572766    0.2946417898382443 Te
   0.6714236502455013    0.2904107328016051    0.3409357917364518 Te
   0.6226990636678115    0.3193873777821037    0.7404465037251792 Te
   0.3042630674551550    0.1272416792272284    0.3408863072897296 Te
