Mn1 Nb1 F6
1.0
   4.7507803199303806    0.0000000000000000    2.5354114758283681
   1.6988369498752345    4.4366503880716612    2.5354114758283681
   0.0000000000000000    0.0000000000000000    5.7186427699999998
Mn Nb F
1 1 6
direct
   0.4089263212877350    0.6350689989831986    0.4934206791716467 Mn
   0.1505425478377440    0.0099723697294572    0.7516835021560194 Nb
   0.6922354797481282    0.1481590361611380    0.9347318931214372 F
   0.3663510013529356    0.3369586277221776    0.8568081609620751 F
   0.2103747335708245    0.7539706033819834    0.7613430791412876 F
   0.5108528559510435    0.6947048500545866    0.2507481316132945 F
   0.6164638772042125    0.7430804329579297    0.4009195288224605 F
   0.6052648658135303    0.2220330853568991    0.2590139873233689 F
