Mn2 V2 Cu2 O8
1.0
   5.2690752999999999    0.0000000000000000    0.0000000000000003
  -2.0911581976220344    4.8363428238275512    0.0000000000000003
   0.0000000000000000    0.0000000000000000    6.4100000000000001
Mn V Cu O
2 2 2 8
direct
   0.0000000000000000    0.0000000000000000    0.5000000000000000 Mn
   0.0000000000000000    0.0000000000000000    0.0000000000000000 Mn
   0.3581600000000000    0.6418400000000000    0.2500000000000000 V
   0.6418400000000000    0.3581600000000000    0.7500000000000000 V
   0.6777000000000000    0.3223000000000000    0.2500000000000000 Cu
   0.3223000000000000    0.6777000000000000    0.7500000000000000 Cu
   0.2779000000000000    0.2275000000000000    0.7500000000000000 O
   0.7725000000000000    0.7221000000000000    0.7500000000000000 O
   0.7221000000000000    0.7725000000000000    0.2500000000000000 O
   0.2275000000000000    0.2779000000000000    0.2500000000000000 O
   0.7562000000000000    0.2438000000000000    0.5375000000000000 O
   0.7562000000000000    0.2438000000000000    0.9625000000000000 O
   0.2438000000000000    0.7562000000000000    0.4625000000000000 O
   0.2438000000000000    0.7562000000000000    0.0375000000000000 O
