Na2 Al2 F8
1.0
   3.5110975840108889    0.0000000000000000   -0.8482099772773812
   0.0000000000000008    5.2691999999999997    0.0000000000000003
   0.0000000000000000    0.0000000000000000    7.6910592600000003
Na Al F
2 2 8
direct
   0.6872677508465539    0.5407992531735800    0.2648250403271981 Na
   0.1904968548629384    0.3944236089591867    0.6140085368869814 Na
   0.9156382705210766    0.7667732889385566    0.9091410211806107 Al
   0.2794411447235319    0.2240628654845143    0.1049762999060757 Al
   0.0325513120451564    0.5545482828295322    0.8014742120625450 F
   0.4644482809478521    0.5470645108548741    0.4676148067560509 F
   0.9702802309750131    0.9827062710686634    0.6719413310202426 F
   0.2717295121072661    0.9252290384278411    0.3268373407302066 F
   0.9764701450601309    0.0445381696201004    0.9137640658643370 F
   0.3205897532302187    0.4809031475422531    0.0809820785207438 F
   0.5196508270149296    0.9344080174694406    0.8917337327070789 F
   0.6941557885415074    0.3717419254060131    0.2328216742154530 F
