K2 Pd1 Cl6
1.0
   7.3497486885085754    0.0000000000000000    4.2433793837865261
   2.4499162295028589    6.9294095168817966    4.2433793837865261
   0.0000000000000000    0.0000000000000000    8.4867587675730505
K Pd Cl
2 1 6
direct
   0.7500000000000000    0.7500000000000000    0.7500000000000000 K+
   0.2500000000000000    0.2500000000000000    0.2500000000000000 K+
   0.0000000000000000    0.0000000000000000    0.0000000000000000 Pd4+
   0.7700000000000000    0.7700000000000000    0.2300000000000000 Cl-
   0.2300000000000000    0.7700000000000000    0.7700000000000000 Cl-
   0.7700000000000000    0.2300000000000000    0.7700000000000000 Cl-
   0.7700000000000000    0.2300000000000000    0.2300000000000000 Cl-
   0.2300000000000000    0.7700000000000000    0.2300000000000000 Cl-
   0.2300000000000000    0.2300000000000000    0.7700000000000000 Cl-
