Ba2 Y2 Ag2 Te6
1.0
   4.4772999999999996    0.0000000000000000    0.0000000000000003
  -2.2386499993028406    7.4279999973039068    0.0000000000000005
   0.0000000000000000    0.0000000000000000   11.3360000000000003
Ba Y Ag Te
2 2 2 6
direct
   0.7096325349642177    0.5820898641877024    0.2172928178593156 Ba
   0.1139296813707769    0.4827538457714273    0.6874584844929469 Ba
   0.9788126650241623    0.0036764295678993    0.9593212719634941 Y
   0.0186671896216386    0.9786897961118005    0.5868811003803690 Y
   0.6767055255017488    0.9476340560213633    0.2950356967258046 Ag
   0.5133922060515876    0.0351793983476196    0.7773272170789398 Ag
   0.3201991682646604    0.6404234158543584    0.9973356559894505 Te
   0.7254893288820305    0.2929266595977100    0.5366351088062296 Te
   0.7284664675629698    0.2353339314536510    0.9847010158690689 Te
   0.1746448349854425    0.6506492770720708    0.4887034232580270 Te
   0.3054764172582092    0.2640396036643717    0.2458608099695591 Te
   0.9510323163616652    0.9007809770020021    0.7489235703777077 Te
