Rb2 Pt1 Cl6
1.0
   7.5920465931750769    0.0000000000000000    4.3832701442698134
   2.5306821977250262    7.1578501721577634    4.3832701442698134
   0.0000000000000000    0.0000000000000000    8.7665402885396251
Rb Pt Cl
2 1 6
direct
   0.7500000000000000    0.7500000000000000    0.7500000000000000 Rb+
   0.2500000000000000    0.2500000000000000    0.2500000000000000 Rb+
   0.0000000000000000    0.0000000000000000    0.0000000000000000 Pt4+
   0.7650000000000000    0.7650000000000000    0.2350000000000000 Cl-
   0.2350000000000000    0.7650000000000000    0.7650000000000000 Cl-
   0.7650000000000000    0.2350000000000000    0.7650000000000000 Cl-
   0.7650000000000000    0.2350000000000000    0.2350000000000000 Cl-
   0.2350000000000000    0.7650000000000000    0.2350000000000000 Cl-
   0.2350000000000000    0.2350000000000000    0.7650000000000000 Cl-
