Cs2 Ti1 Cl6
1.0
   7.8092880761456076    0.0000000000000000    4.5086945729420025
   2.6030960253818698    7.3626674065090763    4.5086945729420025
   0.0000000000000000    0.0000000000000000    9.0173891458840032
Cs Ti Cl
2 1 6
direct
   0.7500000000000000    0.7500000000000000    0.7500000000000000 Cs+
   0.2500000000000000    0.2500000000000000    0.2500000000000000 Cs+
   0.0000000000000000    0.0000000000000000    0.0000000000000000 Ti4+
   0.7700000000000000    0.7700000000000000    0.2300000000000000 Cl-
   0.2300000000000000    0.7700000000000000    0.7700000000000000 Cl-
   0.7700000000000000    0.2300000000000000    0.7700000000000000 Cl-
   0.7700000000000000    0.2300000000000000    0.2300000000000000 Cl-
   0.2300000000000000    0.7700000000000000    0.2300000000000000 Cl-
   0.2300000000000000    0.2300000000000000    0.7700000000000000 Cl-
