Cs2 Sn1 I6
1.0
   7.1218914312994031    0.0000000000000000    4.1118259350000006
   2.3739638104331346    6.7145836345948995    4.1118259350000006
   0.0000000000000000    0.0000000000000000    8.2236518699999994
Cs Sn I
2 1 6
direct
   0.8628717865263968    0.6673352597804065    0.7589199053205771 Cs+
   0.2562169169125075    0.2181590625439383    0.1839094102983254 Cs+
   0.9756417043936757    0.0549325151738677    0.0169715742179816 Sn4+
   0.8041635662479077    0.7258976668621601    0.1551438671094725 I-
   0.2908204238277239    0.8036629741560480    0.7469767087195256 I-
   0.7613966891028254    0.1034460066296140    0.7501780431124967 I-
   0.8398355994251644    0.1269049688050031    0.3746142724246319 I-
   0.0884370072936723    0.8311352980503848    0.2855282440067634 I-
   0.1307608703641954    0.2836485184584165    0.8012845346841393 I-
