Rb2 Ti1 Cl6
1.0
   7.8851389406224541    0.0000000000000000    4.5524870899659762
   2.6283796468741518    7.4341802873496627    4.5524870899659762
   0.0000000000000000    0.0000000000000000    9.1049741799319506
Rb Ti Cl
2 1 6
direct
   0.7500000000000000    0.7500000000000000    0.7500000000000000 Rb+
   0.2500000000000000    0.2500000000000000    0.2500000000000000 Rb+
   0.0000000000000000    0.0000000000000000    0.0000000000000000 Ti4+
   0.7650000000000000    0.7650000000000000    0.2350000000000000 Cl-
   0.2350000000000000    0.7650000000000000    0.7650000000000000 Cl-
   0.7650000000000000    0.2350000000000000    0.7650000000000000 Cl-
   0.7650000000000000    0.2350000000000000    0.2350000000000000 Cl-
   0.2350000000000000    0.7650000000000000    0.2350000000000000 Cl-
   0.2350000000000000    0.2350000000000000    0.7650000000000000 Cl-
