Cs2 Pb1 Cl6
1.0
   6.3784712877486811    0.0000000000000000    3.6826121150000009
   2.1261570959162275    6.0136804015610439    3.6826121150000009
   0.0000000000000000    0.0000000000000000    7.3652242299999999
Cs Pb Cl
2 1 6
direct
   0.6583867568085376    0.8302047333878924    0.7158463839622130 Cs+
   0.4026195957169506    0.2059989020053439    0.1765178109034660 Cs+
   0.0125997233415647    0.0504323809659142    0.8639723079761910 Pb4+
   0.7469629734960713    0.7849276831041861    0.2969575230256606 Cl-
   0.1595207530590366    0.7061158533337700    0.7674899072426868 Cl-
   0.6370849584549698    0.3109237506562629    0.7525562652123875 Cl-
   0.7739464295846149    0.1677914219580658    0.2225440644884881 Cl-
   0.2774110820424247    0.6254107005773081    0.3476514239279527 Cl-
   0.2479833539970454    0.3236031818213999    0.7382655624065906 Cl-
