K2 Os1 Br6
1.0
   8.0110165188219611    0.0000000000000000    4.6251625436243984
   2.6703388396073207    7.5528588062086097    4.6251625436243984
   0.0000000000000000    0.0000000000000000    9.2503250872487950
K Os Br
2 1 6
direct
   0.7500000000000000    0.7500000000000000    0.7500000000000000 K+
   0.2500000000000000    0.2500000000000000    0.2500000000000000 K+
   0.0000000000000000    0.0000000000000000    0.0000000000000000 Os4+
   0.7560000000000000    0.7560000000000000    0.2440000000000000 Br-
   0.2440000000000000    0.7560000000000000    0.7560000000000000 Br-
   0.7560000000000000    0.2440000000000000    0.7560000000000000 Br-
   0.7560000000000000    0.2440000000000000    0.2440000000000000 Br-
   0.2440000000000000    0.7560000000000000    0.2440000000000000 Br-
   0.2440000000000000    0.2440000000000000    0.7560000000000000 Br-
