Ag2 B2 F10
1.0
   6.6994999999999996    0.0000000000000000    0.0000000000000004
   0.0000000000000011    6.6994999999999996    0.0000000000000004
   0.0000000000000000    0.0000000000000000    4.0115999999999996
Ag B F
2 2 10
direct
   0.2356116323660330    0.2461295701050383    0.1409414748241778 Ag
   0.7504366934646118    0.7787395025627759    0.9371639466836631 Ag
   0.2101718454815232    0.7711020334401926    0.0663377295315713 B
   0.8047813815188261    0.2444464237388774    0.0553478843729933 B
   0.3215343425941980    0.5699076497117660    0.2203469167391261 F
   0.9075893103463804    0.2963097157768342    0.2128516419000490 F
   0.1944527121985191    0.9355029956594246    0.1320768350392389 F
   0.5131096068709334    0.1780412923204175    0.1784889218502344 F
   0.6405392120987604    0.4689418441238471    0.8522520372683915 F
   0.1417947168640279    0.7017268898924653    0.8766990897820206 F
   0.8350730376279488    0.0879305177413299    0.6875304356991526 F
   0.3533212690219446    0.9181902709621445    0.9733699217458787 F
   0.2290919149669980    0.2896498610529368    0.6147126900783741 F
   0.7487075171965000    0.7242825117585475    0.2651109357690843 F
