Cr1 Ag1 Se2
1.0
   3.5739684386305672    0.0000000000000000    0.9220794974797915
   1.2528385230886112    2.3740614018400095    0.6925608027247295
   0.0000000000000000    0.0000000000000000    7.3873679200000000
Cr Ag Se
1 1 2
direct
   0.7300000000000000    0.7300000000000000    0.8100000000000001 Cr
   0.2700000000000000    0.2700000000000000    0.1900000000000000 Ag
   0.1400000000000000    0.1400000000000000    0.5800000000000000 Se
   0.0000000000000000    0.0000000000000000    0.0000000000000000 Se
