Rb2 Ti1 Cl6
1.0
   6.0759593044336855    0.0000000000000000    3.5079567400000009
   2.0253197681445623    5.7284693685047436    3.5079567400000009
   0.0000000000000000    0.0000000000000000    7.0159134800000000
Rb Ti Cl
2 1 6
direct
   0.8003619457188238    0.6948382584543862    0.7267840403763943 Rb+
   0.2595396183687128    0.2893243121563801    0.2122542187086591 Rb+
   0.9858980517818301    0.0575060870949153    0.0344847801603312 Ti4+
   0.8749460657552661    0.7755878516199057    0.2205035147841252 Cl-
   0.2252675269753994    0.8011924652830046    0.7896556313238650 Cl-
   0.7581028794468000    0.2715320156090665    0.7841800902004993 Cl-
   0.7319019930477216    0.2434629618639237    0.2611712068263601 Cl-
   0.1953064734743396    0.7954288578526273    0.2700389588258571 Cl-
   0.2262141791958358    0.3094928780741590    0.6941509015726568 Cl-
