Cs2 Ge1 F6
1.0
   5.5052281944222434    0.0000000000000000    3.1784449800000010
   1.8350760648074147    5.1903789176737885    3.1784449800000010
   0.0000000000000000    0.0000000000000000    6.3568899600000002
Cs Ge F
2 1 6
direct
   0.5900145110366136    0.9971541156474654    0.7322496769582472 Cs+
   0.1362099221169105    0.1744470856203960    0.2609100293472762 Cs+
   0.7231702990746001    0.0103189142757754    0.0063311280816390 Ge4+
   0.6721522544093428    0.9050459788857269    0.2284844879334749 F-
   0.2974635620355336    0.8412582765138685    0.7915422073468869 F-
   0.0731868936463047    0.1417707206122737    0.7193901958237092 F-
   0.8140298439509760    0.0496874692012135    0.1979625543670562 F-
   0.1556124693905612    0.8630251492641978    0.3821699429038311 F-
   0.3634235602699952    0.1646083279905927    0.6777995146083717 F-
