Na2 Al2 F8
1.0
   3.5110975840108889    0.0000000000000000   -0.8482099772773812
   0.0000000000000008    5.2691999999999997    0.0000000000000003
   0.0000000000000000    0.0000000000000000    6.0612638445056239
Na Al F
2 2 8
direct
   0.6917000000000000    0.7500000000000000    0.3834000000000000 Na
   0.3083000000000000    0.2500000000000000    0.6166000000000000 Na
   0.9177999999999999    0.7500000000000000    0.8356000000000000 Al
   0.0822000000000000    0.2500000000000000    0.1644000000000000 Al
   0.8328000000000000    0.4962000000000000    0.6656000000000000 F
   0.1672000000000000    0.5038000000000000    0.3344000000000000 F
   0.8328000000000000    0.0038000000000000    0.6656000000000000 F
   0.1672000000000000    0.9962000000000000    0.3344000000000000 F
   0.0000000000000000    0.0000000000000000    0.0000000000000000 F
   0.0000000000000000    0.5000000000000000    0.0000000000000000 F
   0.4173000000000000    0.7500000000000000    0.8346000000000000 F
   0.5827000000000000    0.2500000000000000    0.1654000000000000 F
