Ag1 As1 Se2
1.0
   3.7657720392516620    0.0000000000000000    1.0706007418222629
   1.7307012967531548    3.3445047575129219    1.0706007418222629
   0.0000000000000000    0.0000000000000000    7.1582357500000002
Ag As Se
1 1 2
direct
   0.6602228255631507    0.4490182374490552    0.5210676153910916 Ag
   0.1089183619603793    0.0331095552485681    0.0085978644406727 As
   0.5184538625027352    0.8915289311200298    0.1272867523588918 Se
   0.6721598415458058    0.8396200837978991    0.8987415298162587 Se
