K2 Os1 Cl6
1.0
   7.3198256906032064    0.0000000000000000    4.2261033328909008
   2.4399418968677358    6.9011978439053738    4.2261033328909008
   0.0000000000000000    0.0000000000000000    8.4522066657817998
K Os Cl
2 1 6
direct
   0.7500000000000000    0.7500000000000000    0.7500000000000000 K+
   0.2500000000000000    0.2500000000000000    0.2500000000000000 K+
   0.0000000000000000    0.0000000000000000    0.0000000000000000 Os4+
   0.7570000000000000    0.7570000000000000    0.2430000000000000 Cl-
   0.2430000000000000    0.7570000000000000    0.7570000000000000 Cl-
   0.7570000000000000    0.2430000000000000    0.7570000000000000 Cl-
   0.7570000000000000    0.2430000000000000    0.2430000000000000 Cl-
   0.2430000000000000    0.7570000000000000    0.2430000000000000 Cl-
   0.2430000000000000    0.2430000000000000    0.7570000000000000 Cl-
