Mn2 V2 Cu2 O8
1.0
   5.2690752999999999    0.0000000000000000    0.0000000000000003
  -2.0911581976220344    4.8363428238275512    0.0000000000000003
   0.0000000000000000    0.0000000000000000    6.4100000000000001
Mn V Cu O
2 2 2 8
direct
   0.0185646970817136    0.7982612106140510    0.3603342889121463 Mn
   0.8398597544513176    0.9970853808732889    0.1283371104455099 Mn
   0.4860429670193204    0.5814065461828620    0.1976230060460996 V
   0.5693709755967451    0.1180337916216787    0.7103702934974557 V
   0.8089104749670383    0.3834185481477729    0.2475533937915320 Cu
   0.4966213691004045    0.7114116637594264    0.6597299759182992 Cu
   0.2390406256755395    0.4755367905569781    0.6820311359884826 O
   0.7399358861622652    0.6223231202008104    0.8108333223688210 O
   0.7991583853380286    0.7497855295155320    0.2093262246771646 O
   0.2481126090418499    0.0642615044975282    0.0395678255109699 O
   0.7446026584416851    0.1696530845644033    0.6157077983864908 O
   0.7440587199129567    0.3195684655357318    0.9999117265788943 O
   0.2045884147936635    0.7689561354634306    0.4366075525964739 O
   0.0710932653611500    0.5915296685766173    0.0356865260728754 O
