Cs4 V2 Ag2 S8
1.0
   5.6830745899987338    0.0000000000000000    1.3705397493362677
   2.8415372931252079    6.9714999969738756    0.6852698742416572
   0.0000000000000000    0.0000000000000000   12.4679769500000006
Cs V Ag S
4 2 2 8
direct
   0.0540000000000000    0.2500000000000000    0.8920000000000000 Cs
   0.9460000000000000    0.7500000000000000    0.1080000000000000 Cs
   0.3040000000000000    0.7500000000000000    0.3920000000000000 Cs
   0.0669000000000000    0.5642000000000000    0.6444000000000000 Cs
   0.8750000000000000    0.2500000000000000    0.2500000000000000 V
   0.1250000000000000    0.7500000000000000    0.7500000000000000 V
   0.3750000000000000    0.2500000000000000    0.2500000000000000 Ag
   0.6250000000000000    0.7500000000000000    0.7500000000000000 Ag
   0.6960000000000000    0.2500000000000000    0.6080000000000000 S
   0.3689000000000000    0.5642000000000000    0.8556000000000000 S
   0.7755000000000000    0.9358000000000000    0.8556000000000000 S
   0.2887000000000000    0.9358000000000000    0.6444000000000000 S
   0.6311000000000000    0.4358000000000000    0.1444000000000000 S
   0.2245000000000000    0.0642000000000000    0.1444000000000000 S
   0.7113000000000000    0.0642000000000000    0.3556000000000000 S
   0.9331000000000000    0.4358000000000000    0.3556000000000000 S
