Rb2 Sn1 I6
1.0
   7.1035202525435901    0.0000000000000000    4.1012193300000011
   2.0026764948660478    5.6644245201707530    3.4687374402319469
   0.0000000000000000    0.0000000000000000    8.2024386600000003
Rb Sn I
2 1 6
direct
   0.7500000000000000    0.7500000000000000    0.7500000000000000 Rb+
   0.2500000000000000    0.2500000000000000    0.2500000000000000 Rb+
   0.0000000000000000    0.0000000000000000    0.0000000000000000 Sn4+
   0.7550000000000000    0.7550000000000000    0.2450000000000000 I-
   0.2450000000000000    0.7550000000000000    0.7550000000000000 I-
   0.7550000000000000    0.2450000000000000    0.7550000000000000 I-
   0.7550000000000000    0.2450000000000000    0.2450000000000000 I-
   0.2450000000000000    0.7550000000000000    0.2450000000000000 I-
   0.2450000000000000    0.2450000000000000    0.7550000000000000 I-
